REM Best SHELXD solution:   CC 28.66   CC(weak) 13.65   CFOM  42.31
REM
TITL sad_fa.ins SAD in P622
CELL 0.98000 93.13 93.13 129.92 90.00 90.00 120.00
LATT -1
SYMM X-Y,X,Z
SYMM -Y,X-Y,Z
SYMM -X,-Y,Z
SYMM -X+Y,-X,Z
SYMM Y,-X+Y,Z
SYMM -Y,-X,-Z
SYMM X-Y,-Y,-Z
SYMM X,X-Y,-Z
SYMM Y,X,-Z
SYMM -X+Y,Y,-Z
SYMM -X,-X+Y,-Z
SFAC SE
UNIT 384
SE01   1  0.000000  0.000000  0.500000   0.0833  0.2
SE02   1  0.427460  0.212410  0.833238   0.1548  0.2
SE03   1  0.447174  0.328758  0.666939   0.1261  0.2
SE04   1  0.211861  0.209991  0.892197   0.0966  0.2
SE05   1  0.223076  0.225868  0.555219   0.0937  0.2
SE06   1  0.183388  0.122963  0.975002   0.0831  0.2
SE07   1  0.664062  0.332031  0.720659   0.0721  0.2
SE08   1  0.213104  0.262901  0.771333   0.0662  0.2
SE09   1  0.419312  0.462181  0.524508   0.0657  0.2
SE10   1  0.141846  0.283691  0.500000   0.0325  0.2
SE11   1  0.000000  0.000000  0.788571   0.0106  0.2
SE12   1  0.316528  0.154587  0.927219   0.0595  0.2
SE13   1  0.613045  0.385162  0.794835   0.0561  0.2
SE14   1  0.118866  0.118370  0.825183   0.0536  0.2
SE15   1  0.634132  0.318489  0.932828   0.0526  0.2
SE16   1  0.487579  0.227234  0.740824   0.0497  0.2
SE17   1  0.427773  0.048279  0.999005   0.0474  0.2
SE18   1  0.107201  0.055801  0.612891   0.0473  0.2
SE19   1  0.450089  0.549431  0.605430   0.0464  0.2
SE20   1  0.478935  0.146194  0.999859   0.0451  0.2
SE21   1  0.380829  0.133904  0.654414   0.0416  0.2
SE22   1  0.078522  0.079315  0.614979   0.0415  0.2
SE23   1  0.039886  0.039886  0.500000   0.0191  0.2
SE24   1  0.498764  0.266632  0.665843   0.0370  0.2
SE25   1  0.100060  0.050629  0.524652   0.0364  0.2
SE26   1  0.171341  0.085670  1.000000   0.0169  0.2
SE27   1  0.286858  0.144859  0.637395   0.0331  0.2
SE28   1  0.357246  0.644051  0.557050   0.0330  0.2
SE29   1  0.378090  0.621910  0.613363   0.0308  0.2
SE30   1  0.455803  0.114090  0.830557   0.0296  0.2
SE31   1  0.500000  0.500000  0.736027   0.0141  0.2
SE32   1  0.267090  0.244362  0.999936   0.0276  0.2
SE33   1  0.578415  0.289131  0.678152   0.0262  0.2
SE34   1  0.277939  0.139206  0.592417   0.0257  0.2
SE35   1  0.240814  0.243668  0.779392   0.0253  0.2
SE36   1  0.142021  0.141693  0.765597   0.0250  0.2
SE37   1  0.158913  0.160919  0.738496   0.0222  0.2
SE38   1  0.080788  0.154663  0.803023   0.0219  0.2
SE39   1  0.380386  0.033287  0.884416   0.0207  0.2
SE40   1  0.091515  0.048477  0.881670   0.0207  0.2
SE41   1  0.545914  0.464218  0.779613   0.0186  0.2
SE42   1  0.664062  0.332031  0.812750   0.0155  0.2
SE43   1  0.094124  0.094452  0.548676   0.0080  0.2
SE44   1  0.335938  0.667969  0.519972   0.0021  0.2
SE45   1  0.000000  0.000000  0.902713   0.0000  0.2
HKLF 3
END 
