REM Best SHELXD solution:   CC 35.49   CC(weak) 22.25   CFOM  57.74
REM
TITL sad_fa.ins SAD in P622
CELL 0.98000 93.13 93.13 129.92 90.00 90.00 120.00
LATT -1
SYMM X-Y,X,Z+1/6
SYMM -Y,X-Y,Z+1/3
SYMM -X,-Y,Z+1/2
SYMM -X+Y,-X,Z+2/3
SYMM Y,-X+Y,Z+5/6
SYMM -Y,-X,-Z+5/6
SYMM X-Y,-Y,-Z
SYMM X,X-Y,-Z+1/6
SYMM Y,X,-Z+1/3
SYMM -X+Y,Y,-Z+1/2
SYMM -X,-X+Y,-Z+2/3
SFAC SE
UNIT 384
SE01   1  0.120949  0.450142  0.055907   1.0000  0.2
SE02   1  0.441368  0.568375  0.120852   0.2540  0.2
SE03   1  0.212578  0.508873 -0.079937   0.2436  0.2
SE04   1  0.131615  0.374573 -0.065439   0.2087  0.2
SE05   1  0.144966  0.391098 -0.034793   0.2079  0.2
SE06   1  0.032356  0.092735  0.053926   0.1264  0.2
SE07   1 -0.007683  0.171814  0.057859   0.1132  0.2
SE08   1  0.176392  0.666214 -0.082317   0.1089  0.2
SE09   1 -0.066917  0.217667  0.109919   0.1044  0.2
SE10   1 -0.001701  0.204628  0.109170   0.0886  0.2
SE11   1  0.053589  0.411339  0.031320   0.0877  0.2
SE12   1  0.077942  0.416283  0.058109   0.0852  0.2
SE13   1  0.036194  0.385231 -0.016271   0.0811  0.2
SE14   1 -0.073883  0.135330  0.152153   0.0805  0.2
SE15   1  0.008102  0.281769  0.023392   0.0794  0.2
SE16   1  0.301414  0.337959  0.102798   0.0743  0.2
SE17   1  0.040100  0.236771 -0.114343   0.0739  0.2
SE18   1  0.039215  0.273628  0.132094   0.0707  0.2
SE19   1  0.002678  0.211128 -0.016881   0.0686  0.2
SE20   1  0.111732  0.528206 -0.060403   0.0546  0.2
SE21   1  0.059631  0.212181  0.109743   0.0501  0.2
SE22   1  0.031921  0.369919 -0.081959   0.0238  0.2
HKLF 3
END 
