REM Best SHELXD solution:   CC 30.54   CC(weak) 14.00   CFOM  44.54
REM
TITL sad_fa.ins SAD in P622
CELL 0.98000 93.13 93.13 129.92 90.00 90.00 120.00
LATT -1
SYMM X-Y,X,Z
SYMM -Y,X-Y,Z
SYMM -X,-Y,Z
SYMM -X+Y,-X,Z
SYMM Y,-X+Y,Z
SYMM -Y,-X,-Z
SYMM X-Y,-Y,-Z
SYMM X,X-Y,-Z
SYMM Y,X,-Z
SYMM -X+Y,Y,-Z
SYMM -X,-X+Y,-Z
SFAC SE
UNIT 384
SE01   1  0.000000  0.000000  0.221082   0.1667  0.2
SE02   1  0.332031 -0.332031  0.000000   0.1917  0.2
SE03   1  0.428108  0.428108  0.500000   0.1509  0.2
SE04   1 -0.214180 -0.216576  0.165629   0.2858  0.2
SE05   1 -0.450745 -0.400124  0.180790   0.1769  0.2
SE06   1  0.252922  0.177032  0.409148   0.1673  0.2
SE07   1 -0.430786 -0.221878  0.109918   0.1660  0.2
SE08   1  0.422943  0.214012  0.445958   0.1651  0.2
SE09   1 -0.224197 -0.127037  0.115067   0.1636  0.2
SE10   1 -0.237434 -0.192871  0.164064   0.1500  0.2
SE11   1 -0.342491 -0.238007  0.281239   0.1402  0.2
SE12   1  0.233490  0.125717  0.336158   0.1389  0.2
SE13   1 -0.551712 -0.454285  0.327132   0.1386  0.2
SE14   1  0.396370  0.128456  0.349390   0.1359  0.2
SE15   1  0.190628  0.068001  0.254979   0.1341  0.2
SE16   1  0.649750  0.307060  0.435281   0.1303  0.2
SE17   1 -0.065315 -0.059593  0.045573   0.1283  0.2
SE18   1 -0.440048 -0.113556  0.057884   0.1252  0.2
SE19   1  0.461945  0.124016  0.390394   0.1182  0.2
SE20   1  0.161812  0.103859  0.245959   0.1175  0.2
SE21   1  0.311050  0.174759  0.343155   0.1170  0.2
SE22   1 -0.330299 -0.090614 -0.018071   0.1149  0.2
SE23   1 -0.432983 -0.434860  0.248754   0.1149  0.2
SE24   1 -0.526657 -0.333183  0.259847   0.1106  0.2
SE25   1  0.409187  0.192467  0.335717   0.1090  0.2
SE26   1  0.574333  0.145859  0.407922   0.1065  0.2
SE27   1  0.244514  0.244514  0.500000   0.0511  0.2
SE28   1  0.296165  0.146317  0.457318   0.1014  0.2
SE29   1  0.382141  0.093094  0.407210   0.1008  0.2
SE30   1 -0.486862 -0.199745  0.248890   0.0996  0.2
SE31   1  0.028450  0.025604  0.241544   0.0935  0.2
SE32   1 -0.649742 -0.341980  0.226139   0.0921  0.2
SE33   1  0.237221  0.199669  0.452804   0.0864  0.2
SE34   1 -0.588737 -0.410461  0.146062   0.0837  0.2
SE35   1  0.192551  0.192551  0.500000   0.0413  0.2
SE36   1  0.328217 -0.297203  0.006644   0.0800  0.2
SE37   1 -0.401672  0.001892  0.046757   0.0799  0.2
SE38   1  0.488815  0.245682  0.327015   0.0710  0.2
SE39   1  0.239563  0.119835  0.291027   0.0709  0.2
SE40   1 -0.064911 -0.035614  0.014863   0.0694  0.2
SE41   1 -0.477966  0.004738  0.089430   0.0650  0.2
SE42   1  0.000000  0.000000  0.320577   0.0108  0.2
SE43   1  0.192413  0.193443  0.471084   0.0611  0.2
SE44   1  0.231331  0.111656  0.382420   0.0581  0.2
SE45   1 -0.534714 -0.138496  0.217167   0.0480  0.2
HKLF 3
END 
