REM Best SHELXD solution:   CC 34.42   CC(weak) 23.13   CFOM  57.55
REM
TITL sad_fa.ins SAD in P622
CELL 0.98000 93.13 93.13 129.92 90.00 90.00 120.00
LATT -1
SYMM X-Y,X,Z+1/6
SYMM -Y,X-Y,Z+1/3
SYMM -X,-Y,Z+1/2
SYMM -X+Y,-X,Z+2/3
SYMM Y,-X+Y,Z+5/6
SYMM -Y,-X,-Z+5/6
SYMM X-Y,-Y,-Z
SYMM X,X-Y,-Z+1/6
SYMM Y,X,-Z+1/3
SYMM -X+Y,Y,-Z+1/2
SYMM -X,-X+Y,-Z+2/3
SFAC SE
UNIT 384
SE01   1  0.878372  0.547256  0.054958   1.0000  0.2
SE02   1  0.856789  0.611168 -0.035929   0.2610  0.2
SE03   1  0.558243  0.435616  0.121741   0.2512  0.2
SE04   1  0.788063  0.490387 -0.080201   0.2423  0.2
SE05   1  0.867645  0.624947 -0.064739   0.2168  0.2
SE06   1  0.824844  0.330505 -0.083039   0.1149  0.2
SE07   1  0.784081  0.715637 -0.058388   0.0935  0.2
SE08   1  1.000694  0.790436 -0.017598   0.0788  0.2
SE09   1  0.850006  0.563370  0.059831   0.0777  0.2
SE10   1  1.017929  0.833710  0.048136   0.0742  0.2
SE11   1  0.660629  0.516716 -0.112672   0.0648  0.2
HKLF 3
END 
