REM Best SHELXD solution:   CC 35.51   CC(weak) 18.23   CFOM  53.74
REM
TITL sad_fa.ins SAD in P622
CELL 0.98000 93.13 93.13 129.92 90.00 90.00 120.00
LATT -1
SYMM X-Y,X,Z+1/6
SYMM -Y,X-Y,Z+1/3
SYMM -X,-Y,Z+1/2
SYMM -X+Y,-X,Z+2/3
SYMM Y,-X+Y,Z+5/6
SYMM -Y,-X,-Z+5/6
SYMM X-Y,-Y,-Z
SYMM X,X-Y,-Z+1/6
SYMM Y,X,-Z+1/3
SYMM -X+Y,Y,-Z+1/2
SYMM -X,-X+Y,-Z+2/3
SFAC SE
UNIT 384
SE01   1  0.117157  0.448715  0.055934   1.0000  0.2
SE02   1  0.131714  0.374413 -0.065190   0.2399  0.2
SE03   1  0.126480  0.559441 -0.211123   0.2331  0.2
SE04   1  0.208450  0.503395 -0.080345   0.1965  0.2
SE05   1  0.142784  0.388725 -0.036582   0.1660  0.2
SE06   1  0.030586  0.093872  0.052020   0.1478  0.2
SE07   1  0.207100  0.369537 -0.084197   0.1421  0.2
SE08   1  0.230690  0.143349  0.043029   0.1356  0.2
SE09   1  0.366196  0.579094  0.002841   0.1344  0.2
SE10   1  0.175270  0.671242 -0.081314   0.1328  0.2
SE11   1  0.256554  0.474495  0.080106   0.1311  0.2
SE12   1  0.216049  0.284248 -0.057910   0.1301  0.2
SE13   1 -0.149269  0.011475  0.030793   0.1293  0.2
SE14   1  0.114098  0.526093 -0.061019   0.1260  0.2
SE15   1  0.281517  0.702522 -0.137173   0.1182  0.2
SE16   1  0.101944  0.742233 -0.108041   0.1158  0.2
SE17   1  0.143661  0.334213  0.060371   0.1157  0.2
SE18   1  0.271866  0.728134 -0.083333   0.0568  0.2
SE19   1  0.277023  0.506401  0.036114   0.1114  0.2
SE20   1  0.000244  0.207184 -0.020618   0.1090  0.2
SE21   1  0.290108  0.433868  0.123936   0.1072  0.2
SE22   1 -0.063728 -0.005730  0.047184   0.1072  0.2
SE23   1  0.287132  0.555038  0.008511   0.1061  0.2
SE24   1  0.158134  0.441498  0.057862   0.1052  0.2
SE25   1  0.225502  0.455544 -0.226881   0.1009  0.2
SE26   1  0.137199  0.211845 -0.015414   0.0979  0.2
SE27   1  0.383904  0.578537 -0.043280   0.0976  0.2
SE28   1  0.071068  0.366150  0.005385   0.0961  0.2
SE29   1  0.173271  0.285202 -0.024617   0.0960  0.2
SE30   1  0.131668  0.319466 -0.034884   0.0947  0.2
SE31   1  0.448074  0.630730 -0.033186   0.0910  0.2
SE32   1  0.350494  0.811935 -0.187669   0.0906  0.2
SE33   1  0.082733  0.464119  0.059867   0.0881  0.2
SE34   1  0.273972  0.480057 -0.090435   0.0880  0.2
SE35   1  0.011307  0.395119  0.038222   0.0801  0.2
SE36   1  0.299271  0.339638  0.102776   0.0799  0.2
SE37   1 -0.006508  0.172897  0.055330   0.0766  0.2
SE38   1  0.133827  0.413277  0.015266   0.0764  0.2
SE39   1  0.252609  0.571953  0.001183   0.0739  0.2
SE40   1  0.032509  0.371597 -0.080327   0.0733  0.2
SE41   1  0.146965  0.484032  0.074417   0.0668  0.2
SE42   1 -0.083504  0.161255  0.055717   0.0518  0.2
SE43   1  0.293739  0.473999 -0.065915   0.0509  0.2
SE44   1  0.200302  0.346184 -0.126549   0.0451  0.2
SE45   1  0.515099  0.663033 -0.055920   0.0350  0.2
HKLF 3
END 
