REM Best SHELXD solution:   CC 25.59   CC(weak) 16.38   CFOM  41.97
REM
TITL sad_fa.ins SAD in P622
CELL 0.98000 93.13 93.13 129.92 90.00 90.00 120.00
LATT -1
SYMM X-Y,X,Z
SYMM -Y,X-Y,Z
SYMM -X,-Y,Z
SYMM -X+Y,-X,Z
SYMM Y,-X+Y,Z
SYMM -Y,-X,-Z
SYMM X-Y,-Y,-Z
SYMM X,X-Y,-Z
SYMM Y,X,-Z
SYMM -X+Y,Y,-Z
SYMM -X,-X+Y,-Z
SFAC SE
UNIT 384
SE01   1  0.000000  0.000000  0.500000   0.0833  0.2
SE02   1 -0.213409 -0.427490  0.166912   0.1638  0.2
SE03   1 -0.215752 -0.225204  0.442980   0.1237  0.2
SE04   1 -0.324348 -0.448257  0.335528   0.1220  0.2
SE05   1 -0.003738 -0.217484  0.112523   0.1033  0.2
SE06   1 -0.332031 -0.664062  0.279308   0.0868  0.2
SE07   1 -0.001083 -0.115852  0.174212   0.0630  0.2
SE08   1  0.000000  0.000000  0.214755   0.0077  0.2
SE09   1 -0.158699 -0.316811  0.073174   0.0421  0.2
SE10   1  0.041199  0.041199  0.500000   0.0169  0.2
SE11   1 -0.332031 -0.664062  0.235835   0.0226  0.2
HKLF 3
END 
