REM Best SHELXD solution:   CC 26.63   CC(weak) 14.08   CFOM  40.71
REM
TITL sad_fa.ins SAD in P622
CELL 0.98000 93.13 93.13 129.92 90.00 90.00 120.00
LATT -1
SYMM X-Y,X,Z
SYMM -Y,X-Y,Z
SYMM -X,-Y,Z
SYMM -X+Y,-X,Z
SYMM Y,-X+Y,Z
SYMM -Y,-X,-Z
SYMM X-Y,-Y,-Z
SYMM X,X-Y,-Z
SYMM Y,X,-Z
SYMM -X+Y,Y,-Z
SYMM -X,-X+Y,-Z
SFAC SE
UNIT 384
SE01   1  0.000000  0.000000  0.220963   0.1667  0.2
SE02   1 -0.216499 -0.213104  0.166030   0.3058  0.2
SE03   1 -0.431801 -0.431801  0.500000   0.1513  0.2
SE04   1 -0.664062 -0.332031  0.000000   0.1434  0.2
SE05   1 -0.237297 -0.340660  0.281011   0.1753  0.2
SE06   1 -0.173904 -0.253929  0.411677   0.1610  0.2
SE07   1 -0.646111 -0.339111  0.436712   0.1578  0.2
SE08   1 -0.326546 -0.450623  0.613592   0.1525  0.2
SE09   1 -0.447220 -0.325012  0.058612   0.1517  0.2
SE10   1 -0.443092 -0.542488  0.673163   0.1510  0.2
SE11   1 -0.190842 -0.231743  0.163276   0.1490  0.2
SE12   1 -0.048973 -0.036270  0.221161   0.1408  0.2
SE13   1 -0.130608 -0.222679  0.113113   0.1297  0.2
SE14   1 -0.120071 -0.231300  0.337204   0.1194  0.2
SE15   1 -0.128716 -0.110443  0.202958   0.1155  0.2
SE16   1 -0.160873 -0.365570  0.492706   0.1085  0.2
SE17   1 -0.268867 -0.311073  0.049812   0.1025  0.2
SE18   1 -0.002098 -0.246277  0.500000   0.0917  0.2
SE19   1 -0.007095 -0.333900  0.553596   0.0843  0.2
SE20   1 -0.170670 -0.350739  0.436086   0.0814  0.2
SE21   1  0.000000  0.000000  0.316484   0.0119  0.2
SE22   1 -0.177277 -0.307037  0.342073   0.0706  0.2
SE23   1 -0.119965 -0.121460  0.103001   0.0678  0.2
SE24   1 -0.430786 -0.201286  0.107278   0.0659  0.2
SE25   1 -0.245781 -0.498047  0.437961   0.0650  0.2
SE26   1 -0.212753 -0.216286  0.197881   0.0514  0.2
SE27   1 -0.604271 -0.302139  0.500000   0.0232  0.2
SE28   1  0.021309  0.021912  0.247336   0.0153  0.2
HKLF 3
END 
