REM Best SHELXD solution:   CC 34.48   CC(weak) 21.60   CFOM  56.09
REM
TITL sad_fa.ins SAD in P622
CELL 0.98000 93.13 93.13 129.92 90.00 90.00 120.00
LATT -1
SYMM X-Y,X,Z+1/6
SYMM -Y,X-Y,Z+1/3
SYMM -X,-Y,Z+1/2
SYMM -X+Y,-X,Z+2/3
SYMM Y,-X+Y,Z+5/6
SYMM -Y,-X,-Z+5/6
SYMM X-Y,-Y,-Z
SYMM X,X-Y,-Z+1/6
SYMM Y,X,-Z+1/3
SYMM -X+Y,Y,-Z+1/2
SYMM -X,-X+Y,-Z+2/3
SFAC SE
UNIT 384
SE01   1  0.878601  0.546654  0.056006   1.0000  0.2
SE02   1  0.556747  0.432594  0.121889   0.2919  0.2
SE03   1  0.788269  0.491669 -0.081906   0.2631  0.2
SE04   1  0.856712  0.610840 -0.033072   0.2490  0.2
SE05   1  1.012909  0.932640 -0.099382   0.1471  0.2
SE06   1  0.964043  0.606583  0.134386   0.1443  0.2
SE07   1  0.869766  0.614311  0.231041   0.1429  0.2
SE08   1  0.381172  0.350754  0.164337   0.1421  0.2
SE09   1  0.925995  0.523766  0.040824   0.1326  0.2
SE10   1  0.995628  0.789688 -0.018376   0.1172  0.2
SE11   1  0.936401  0.784309  0.108594   0.1136  0.2
SE12   1  1.039581  0.702164  0.270216   0.1098  0.2
SE13   1  0.825844  0.494591  0.249607   0.1096  0.2
SE14   1  0.779457  0.411705 -0.130856   0.1096  0.2
SE15   1  0.849052  0.564301  0.067297   0.1079  0.2
SE16   1  0.553604  0.370247  0.058483   0.1025  0.2
SE17   1  0.901237  0.553513  0.084110   0.1022  0.2
SE18   1  0.437286  0.331047  0.140614   0.0989  0.2
SE19   1  0.999451  0.788506  0.109915   0.0965  0.2
SE20   1  0.929878  0.636032  0.005135   0.0948  0.2
SE21   1  0.965637  0.626862 -0.075112   0.0892  0.2
SE22   1  0.902794  0.893639 -0.102278   0.0863  0.2
SE23   1  1.074768  0.736092  0.198641   0.0820  0.2
SE24   1  0.348717  0.237305  0.166838   0.0813  0.2
SE25   1  0.425034  0.366440  0.144461   0.0813  0.2
SE26   1  0.623413  0.425011 -0.046774   0.0736  0.2
SE27   1  1.064316  0.785439  0.110214   0.0706  0.2
SE28   1  0.594414  0.405586 -0.083333   0.0341  0.2
HKLF 3
END 
