REM Best SHELXD solution:   CC 27.32   CC(weak) 14.32   CFOM  41.64
REM
TITL sad_fa.ins SAD in P622
CELL 0.98000 93.13 93.13 129.92 90.00 90.00 120.00
LATT -1
SYMM X-Y,X,Z
SYMM -Y,X-Y,Z
SYMM -X,-Y,Z
SYMM -X+Y,-X,Z
SYMM Y,-X+Y,Z
SYMM -Y,-X,-Z
SYMM X-Y,-Y,-Z
SYMM X,X-Y,-Z
SYMM Y,X,-Z
SYMM -X+Y,Y,-Z
SYMM -X,-X+Y,-Z
SFAC SE
UNIT 384
SE01   1  0.000000  0.000000  0.221039   0.1667  0.2
SE02   1 -0.332031  0.332031  0.000000   0.1503  0.2
SE03   1 -0.213097 -0.216667  0.165551   0.2690  0.2
SE04   1 -0.430420 -0.430420  0.500000   0.1154  0.2
SE05   1 -0.237793 -0.337852  0.281203   0.1738  0.2
SE06   1 -0.122894 -0.236198  0.335471   0.1730  0.2
SE07   1 -0.177437 -0.252686  0.410694   0.1712  0.2
SE08   1 -0.321823 -0.449577  0.613485   0.1685  0.2
SE09   1 -0.442848 -0.540703  0.674609   0.1651  0.2
SE10   1 -0.245537 -0.245537  0.500000   0.0778  0.2
SE11   1 -0.233322 -0.184975  0.161826   0.1485  0.2
SE12   1 -0.255836 -0.456131  0.178445   0.1462  0.2
SE13   1 -0.345955 -0.652374  0.562818   0.1261  0.2
SE14   1 -0.134148 -0.224258  0.115424   0.1221  0.2
SE15   1 -0.060150 -0.190910  0.301923   0.1158  0.2
SE16   1 -0.117973 -0.444572  0.062682   0.1125  0.2
SE17   1 -0.350922 -0.230461  0.466479   0.1094  0.2
SE18   1 -0.102974 -0.105911  0.509493   0.1051  0.2
SE19   1 -0.216454  0.384148  0.033431   0.0953  0.2
SE20   1 -0.178581  0.314316  0.080432   0.0927  0.2
SE21   1 -0.108269 -0.056686  0.189839   0.0855  0.2
SE22   1 -0.256882 -0.513763  0.500000   0.0390  0.2
SE23   1 -0.229294 -0.271721  0.495416   0.0768  0.2
SE24   1 -0.213272 -0.209854  0.423724   0.0642  0.2
SE25   1 -0.066093 -0.032784  0.107465   0.0559  0.2
SE26   1 -0.286240 -0.292274  0.366482   0.0552  0.2
SE27   1 -0.209351 -0.214333  0.072662   0.0530  0.2
SE28   1 -0.087799 -0.223663  0.105682   0.0524  0.2
SE29   1 -0.231926 -0.400238  0.386330   0.0421  0.2
SE30   1  0.036362  0.034164  0.239049   0.0412  0.2
SE31   1  0.000000 -0.500000  0.074625   0.0170  0.2
SE32   1  0.000000  0.000000  0.316816   0.0052  0.2
SE33   1 -0.250656  0.374672  0.000000   0.0117  0.2
SE34   1 -0.317398 -0.636261  0.214810   0.0221  0.2
SE35   1 -0.134377 -0.268753  0.000000   0.0094  0.2
HKLF 3
END 
