REM Best SHELXD solution:   CC 34.84   CC(weak) 20.38   CFOM  55.23
REM
TITL sad_fa.ins SAD in P622
CELL 0.98000 93.13 93.13 129.92 90.00 90.00 120.00
LATT -1
SYMM X-Y,X,Z+1/6
SYMM -Y,X-Y,Z+1/3
SYMM -X,-Y,Z+1/2
SYMM -X+Y,-X,Z+2/3
SYMM Y,-X+Y,Z+5/6
SYMM -Y,-X,-Z+5/6
SYMM X-Y,-Y,-Z
SYMM X,X-Y,-Z+1/6
SYMM Y,X,-Z+1/3
SYMM -X+Y,Y,-Z+1/2
SYMM -X,-X+Y,-Z+2/3
SFAC SE
UNIT 384
SE01   1  0.878761  0.546280  0.056201   1.0000  0.2
SE02   1  0.557663  0.434395  0.122330   0.2617  0.2
SE03   1  0.855240  0.609879 -0.033653   0.2439  0.2
SE04   1  0.867104  0.625427 -0.066477   0.2384  0.2
SE05   1  0.791840  0.493614 -0.080761   0.2193  0.2
SE06   1  0.823746  0.329887 -0.083956   0.1882  0.2
SE07   1  0.841805  0.214661 -0.141937   0.1548  0.2
SE08   1  0.805946  0.425819 -0.024565   0.1532  0.2
SE09   1  0.896736  0.469070  0.082451   0.1446  0.2
SE10   1  0.758469  0.085510 -0.112546   0.1397  0.2
SE11   1  0.962532  0.563614 -0.026035   0.1375  0.2
SE12   1  0.742455  0.127228 -0.102263   0.1373  0.2
SE13   1  0.807701  0.340736  0.025738   0.1363  0.2
SE14   1  0.820976  0.446602  0.090349   0.1319  0.2
SE15   1  0.994507  0.785698 -0.017983   0.1216  0.2
SE16   1  0.651894  0.412392 -0.099183   0.1190  0.2
SE17   1  0.723221  0.491264  0.035316   0.1155  0.2
SE18   1  0.901230  0.554329  0.084509   0.1128  0.2
SE19   1  0.845413  0.560143  0.060705   0.1118  0.2
SE20   1  1.087410  0.633888  0.025668   0.1116  0.2
SE21   1  0.824440  0.716217 -0.022960   0.1082  0.2
SE22   1  0.433708  0.329079  0.141144   0.1060  0.2
SE23   1  0.949333  0.617973 -0.043020   0.1049  0.2
SE24   1  0.808914  0.518784 -0.114109   0.1014  0.2
SE25   1  1.015205  0.936737 -0.099856   0.0967  0.2
SE26   1  0.837708  0.511131  0.063877   0.0925  0.2
SE27   1  0.952446  0.258774 -0.188431   0.0871  0.2
SE28   1  0.730164  0.273438 -0.083333   0.0759  0.2
SE29   1  0.821518  0.070663 -0.191472   0.0548  0.2
SE30   1  0.929207  0.537842 -0.006534   0.0521  0.2
SE31   1  1.119576  0.529121  0.040751   0.0502  0.2
SE32   1  0.751762  0.450050 -0.046975   0.0445  0.2
SE33   1  0.895638  0.591965  0.065016   0.0339  0.2
SE34   1  0.970612  0.630066 -0.080071   0.0244  0.2
HKLF 3
END 
