REM Best SHELXD solution:   CC 27.85   CC(weak) 14.99   CFOM  42.84
REM
TITL sad_fa.ins SAD in P622
CELL 0.98000 93.13 93.13 129.92 90.00 90.00 120.00
LATT -1
SYMM X-Y,X,Z
SYMM -Y,X-Y,Z
SYMM -X,-Y,Z
SYMM -X+Y,-X,Z
SYMM Y,-X+Y,Z
SYMM -Y,-X,-Z
SYMM X-Y,-Y,-Z
SYMM X,X-Y,-Z
SYMM Y,X,-Z
SYMM -X+Y,Y,-Z
SYMM -X,-X+Y,-Z
SFAC SE
UNIT 384
SE01   1  0.000000  0.000000  0.500000   0.0833  0.2
SE02   1 -0.424812 -0.216103  0.168073   0.1465  0.2
SE03   1 -0.447388 -0.121742  0.335378   0.1181  0.2
SE04   1 -0.212257 -0.207359  0.110910   0.1168  0.2
SE05   1 -0.130928 -0.241280  0.057231   0.1019  0.2
SE06   1 -0.119934 -0.180847  0.026258   0.0923  0.2
SE07   1 -0.664062 -0.332031  0.280070   0.0891  0.2
SE08   1 -0.469955 -0.258537  0.213562   0.0766  0.2
SE09   1 -0.114471 -0.111488  0.175118   0.0700  0.2
SE10   1 -0.276382 -0.270325  0.084714   0.0669  0.2
SE11   1 -0.033119 -0.044792  0.493121   0.0633  0.2
SE12   1 -0.143265 -0.286530  0.500000   0.0306  0.2
SE13   1  0.000000  0.000000  0.000000   0.0049  0.2
SE14   1 -0.430756 -0.384697  0.000219   0.0585  0.2
SE15   1 -0.158165 -0.318130  0.068965   0.0560  0.2
SE16   1 -0.635643 -0.318199  0.066528   0.0549  0.2
SE17   1  0.000000  0.000000  0.211419   0.0079  0.2
SE18   1 -0.231171 -0.274818  0.214148   0.0457  0.2
SE19   1 -0.185181 -0.370018  0.050213   0.0448  0.2
SE20   1 -0.085434 -0.170868  0.000000   0.0216  0.2
SE21   1 -0.053322 -0.105560  0.477133   0.0422  0.2
SE22   1 -0.613365 -0.229218  0.211539   0.0418  0.2
SE23   1 -0.517586 -0.324417  0.043942   0.0389  0.2
SE24   1 -0.500000  0.000000  0.356453   0.0181  0.2
SE25   1 -0.241402 -0.240608  0.219384   0.0339  0.2
SE26   1 -0.244690 -0.266609 -0.000324   0.0326  0.2
SE27   1 -0.646713 -0.293808  0.442934   0.0232  0.2
SE28   1 -0.176376 -0.352501  0.119864   0.0120  0.2
HKLF 3
END 
