REM Best SHELXD solution:   CC 36.12   CC(weak) 19.49   CFOM  55.61
REM
TITL sad_fa.ins SAD in P622
CELL 0.98000 93.13 93.13 129.92 90.00 90.00 120.00
LATT -1
SYMM X-Y,X,Z+1/6
SYMM -Y,X-Y,Z+1/3
SYMM -X,-Y,Z+1/2
SYMM -X+Y,-X,Z+2/3
SYMM Y,-X+Y,Z+5/6
SYMM -Y,-X,-Z+5/6
SYMM X-Y,-Y,-Z
SYMM X,X-Y,-Z+1/6
SYMM Y,X,-Z+1/3
SYMM -X+Y,Y,-Z+1/2
SYMM -X,-X+Y,-Z+2/3
SFAC SE
UNIT 384
SE01   1  0.878426  0.546326  0.055994   1.0000  0.2
SE02   1  0.856735  0.610924 -0.033063   0.2753  0.2
SE03   1  0.869858  0.626617 -0.065265   0.2490  0.2
SE04   1  0.790077  0.492729 -0.079196   0.2489  0.2
SE05   1  0.875351  0.443306 -0.210780   0.2414  0.2
SE06   1  0.812759  0.274483 -0.196905   0.2012  0.2
SE07   1  0.910530  0.666100 -0.000367   0.1831  0.2
SE08   1  0.801903  0.533257 -0.032759   0.1609  0.2
SE09   1  0.778297  0.410278 -0.129792   0.1583  0.2
SE10   1  0.924667  0.119217 -0.160162   0.1551  0.2
SE11   1  0.729401  0.270607 -0.083333   0.0731  0.2
SE12   1  0.656494  0.193024 -0.190577   0.1436  0.2
SE13   1  0.762779  0.039024 -0.200821   0.1388  0.2
SE14   1  0.997368  0.788246 -0.017451   0.1382  0.2
SE15   1  0.824699  0.330688 -0.083139   0.1333  0.2
SE16   1  1.015053  0.935974 -0.100039   0.1330  0.2
SE17   1  0.709068  0.448158  0.001349   0.1318  0.2
SE18   1  0.902428  0.555580  0.083121   0.1288  0.2
SE19   1  0.602631  0.212959 -0.155983   0.1282  0.2
SE20   1  1.047661  0.592400  0.082435   0.1208  0.2
SE21   1  0.761856  0.086998 -0.105868   0.1200  0.2
SE22   1  0.967773  0.202515 -0.214280   0.1179  0.2
SE23   1  0.907692  0.940018 -0.114744   0.1174  0.2
SE24   1  0.963943  0.604340  0.133280   0.1159  0.2
SE25   1  0.800613  0.499603  0.045514   0.1140  0.2
SE26   1  0.722397  0.485001  0.036419   0.1096  0.2
SE27   1  0.970375  0.432022 -0.095520   0.1087  0.2
SE28   1  0.742111  0.125511 -0.100672   0.1083  0.2
SE29   1  0.881393  0.713997 -0.107121   0.1065  0.2
SE30   1  1.142906  0.606293  0.083885   0.0994  0.2
SE31   1  0.848488  0.397346 -0.276124   0.0936  0.2
SE32   1  0.717598 -0.104240 -0.192507   0.0857  0.2
SE33   1  0.845528  0.559669  0.060444   0.0803  0.2
SE34   1  0.886909  0.651367 -0.164723   0.0717  0.2
SE35   1  0.689674  0.255325 -0.188935   0.0708  0.2
SE36   1  1.189781  0.594894  0.083333   0.0339  0.2
SE37   1  0.791061 -0.000862 -0.223676   0.0651  0.2
SE38   1  0.697151 -0.122978 -0.126956   0.0594  0.2
SE39   1  0.816032 -0.056038 -0.201600   0.0561  0.2
HKLF 3
END 
