REM Best SHELXD solution:   CC 34.74   CC(weak) 23.22   CFOM  57.96
REM
TITL sad_fa.ins SAD in P622
CELL 0.98000 93.13 93.13 129.92 90.00 90.00 120.00
LATT -1
SYMM X-Y,X,Z+1/6
SYMM -Y,X-Y,Z+1/3
SYMM -X,-Y,Z+1/2
SYMM -X+Y,-X,Z+2/3
SYMM Y,-X+Y,Z+5/6
SYMM -Y,-X,-Z+5/6
SYMM X-Y,-Y,-Z
SYMM X,X-Y,-Z+1/6
SYMM Y,X,-Z+1/3
SYMM -X+Y,Y,-Z+1/2
SYMM -X,-X+Y,-Z+2/3
SFAC SE
UNIT 384
SE01   1  0.878059  0.547310  0.056003   1.0000  0.2
SE02   1  0.855690  0.610313 -0.033910   0.2867  0.2
SE03   1  0.558540  0.436035  0.121587   0.2653  0.2
SE04   1  0.790306  0.493042 -0.080765   0.2503  0.2
SE05   1  0.871094  0.626625 -0.066334   0.2386  0.2
SE06   1  1.013939  0.934418 -0.098916   0.1304  0.2
SE07   1  0.914833  0.665260 -0.000281   0.1190  0.2
SE08   1  0.996895  0.788177 -0.018151   0.1113  0.2
SE09   1  0.822609  0.449692  0.088154   0.1088  0.2
SE10   1  0.574242  0.425125  0.076956   0.0745  0.2
SE11   1  0.730469  0.273285 -0.083762   0.0595  0.2
HKLF 3
END 
