REM Best SHELXD solution:   CC 26.65   CC(weak) 15.62   CFOM  42.26
REM
TITL sad_fa.ins SAD in P622
CELL 0.98000 93.13 93.13 129.92 90.00 90.00 120.00
LATT -1
SYMM X-Y,X,Z
SYMM -Y,X-Y,Z
SYMM -X,-Y,Z
SYMM -X+Y,-X,Z
SYMM Y,-X+Y,Z
SYMM -Y,-X,-Z
SYMM X-Y,-Y,-Z
SYMM X,X-Y,-Z
SYMM Y,X,-Z
SYMM -X+Y,Y,-Z
SYMM -X,-X+Y,-Z
SFAC SE
UNIT 384
SE01   1  0.000000  0.000000  0.500000   0.0833  0.2
SE02   1 -0.431198 -0.215591  0.168389   0.1469  0.2
SE03   1 -0.215691 -0.009575  0.110180   0.1241  0.2
SE04   1 -0.447563 -0.325470  0.335296   0.1233  0.2
SE05   1 -0.339111 -0.099861 -0.001762   0.1204  0.2
SE06   1 -0.436005 -0.425323  0.220851   0.1189  0.2
SE07   1 -0.243523 -0.111786 -0.055750   0.1125  0.2
SE08   1  0.213722  0.224503  0.555952   0.0970  0.2
SE09   1 -0.115952 -0.000473  0.176760   0.0808  0.2
SE10   1  0.107979  0.122589  0.518024   0.0694  0.2
SE11   1 -0.551178 -0.450554  0.390948   0.0660  0.2
SE12   1  0.042603  0.033089  0.509229   0.0576  0.2
SE13   1 -0.614326 -0.229134  0.204692   0.0550  0.2
SE14   1  0.000000  0.000000  0.000000   0.0039  0.2
SE15   1  0.000000  0.000000  0.211466   0.0071  0.2
SE16   1 -0.597931 -0.447189  0.486156   0.0261  0.2
SE17   1 -0.664062 -0.332031  0.238363   0.0242  0.2
HKLF 3
END 
