REM Best SHELXD solution:   CC 37.11   CC(weak) 18.95   CFOM  56.05
REM
TITL sad_fa.ins SAD in P622
CELL 0.98000 93.13 93.13 129.92 90.00 90.00 120.00
LATT -1
SYMM X-Y,X,Z+1/6
SYMM -Y,X-Y,Z+1/3
SYMM -X,-Y,Z+1/2
SYMM -X+Y,-X,Z+2/3
SYMM Y,-X+Y,Z+5/6
SYMM -Y,-X,-Z+5/6
SYMM X-Y,-Y,-Z
SYMM X,X-Y,-Z+1/6
SYMM Y,X,-Z+1/3
SYMM -X+Y,Y,-Z+1/2
SYMM -X,-X+Y,-Z+2/3
SFAC SE
UNIT 384
SE01   1  0.120277  0.449341  0.056033   1.0000  0.2
SE02   1  0.442688  0.567291  0.121875   0.2436  0.2
SE03   1  0.209587  0.507141 -0.081534   0.2046  0.2
SE04   1  0.129601  0.373299 -0.066301   0.1979  0.2
SE05   1  0.145607  0.390305 -0.034583   0.1850  0.2
SE06   1  0.191788  0.533890  0.143471   0.1587  0.2
SE07   1  0.351280  0.587799 -0.099005   0.1444  0.2
SE08   1  0.178764  0.288551  0.088580   0.1396  0.2
SE09   1  0.253075  0.550957  0.085780   0.1384  0.2
SE10   1  0.115105  0.193069  0.173070   0.1367  0.2
SE11   1  0.177567  0.550957  0.088373   0.1324  0.2
SE12   1 -0.079033 -0.014847  0.068973   0.1318  0.2
SE13   1  0.290443  0.551086  0.006188   0.1306  0.2
SE14   1  0.221703  0.589310 -0.130836   0.1293  0.2
SE15   1  0.081558  0.333801 -0.000564   0.1278  0.2
SE16   1  0.177139  0.667206 -0.083699   0.1273  0.2
SE17   1  0.004868  0.212509 -0.018556   0.1234  0.2
SE18   1  0.096962  0.441528  0.081832   0.1185  0.2
SE19   1  0.183258  0.483200 -0.150776   0.1135  0.2
SE20   1  0.030075  0.384521 -0.168332   0.1128  0.2
SE21   1  0.031921  0.094269  0.053538   0.1115  0.2
SE22   1  0.368477  0.530212 -0.105448   0.1096  0.2
SE23   1  0.201454  0.370216 -0.090476   0.1093  0.2
SE24   1 -0.017296  0.165573  0.049229   0.1085  0.2
SE25   1  0.033241  0.395279  0.133030   0.0891  0.2
SE26   1  0.360748  0.453568 -0.141845   0.0881  0.2
SE27   1  0.215309  0.280518 -0.057167   0.0857  0.2
SE28   1  0.269951  0.726562 -0.083333   0.0849  0.2
SE29   1 -0.017815  0.289207  0.175617   0.0845  0.2
SE30   1  0.254456  0.276054 -0.060353   0.0808  0.2
SE31   1  0.423073  0.619194 -0.118213   0.0800  0.2
SE32   1  0.115379  0.285156 -0.107861   0.0780  0.2
SE33   1  0.044006  0.526817 -0.090205   0.0765  0.2
SE34   1  0.300034  0.340805  0.103595   0.0748  0.2
SE35   1  0.070602  0.367661  0.003561   0.0741  0.2
SE36   1  0.006599  0.282883  0.023752   0.0717  0.2
SE37   1  0.018150  0.331512 -0.133193   0.0714  0.2
SE38   1  0.041069  0.491562  0.056061   0.0682  0.2
SE39   1  0.431351  0.583672  0.079793   0.0677  0.2
SE40   1  0.158234  0.443375  0.056098   0.0672  0.2
SE41   1  0.086029  0.467987  0.057368   0.0628  0.2
SE42   1  0.030800  0.416435 -0.081688   0.0610  0.2
SE43   1  0.031586  0.515793  0.083333   0.0304  0.2
SE44   1  0.060204  0.423752 -0.189321   0.0574  0.2
SE45   1  0.280624  0.513199  0.035470   0.0391  0.2
HKLF 3
END 
