REM Best SHELXD solution:   CC 34.15   CC(weak) 18.60   CFOM  52.75
REM
TITL sad_fa.ins SAD in P622
CELL 0.98000 93.13 93.13 129.92 90.00 90.00 120.00
LATT -1
SYMM X-Y,X,Z+1/6
SYMM -Y,X-Y,Z+1/3
SYMM -X,-Y,Z+1/2
SYMM -X+Y,-X,Z+2/3
SYMM Y,-X+Y,Z+5/6
SYMM -Y,-X,-Z+5/6
SYMM X-Y,-Y,-Z
SYMM X,X-Y,-Z+1/6
SYMM Y,X,-Z+1/3
SYMM -X+Y,Y,-Z+1/2
SYMM -X,-X+Y,-Z+2/3
SFAC SE
UNIT 384
SE01   1  0.116783  0.448769  0.056032   1.0000  0.2
SE02   1  0.441216  0.569061  0.121900   0.2455  0.2
SE03   1  0.131508  0.374641 -0.067395   0.2063  0.2
SE04   1  0.209785  0.504768 -0.080396   0.1979  0.2
SE05   1  0.029640  0.094742  0.054318   0.1456  0.2
SE06   1  0.187576  0.538116  0.142994   0.1390  0.2
SE07   1  0.150658  0.392509 -0.038177   0.1386  0.2
SE08   1  0.181328  0.290794  0.088535   0.1309  0.2
SE09   1  0.215248  0.283684 -0.057649   0.1304  0.2
SE10   1  0.143486  0.537186 -0.032730   0.1258  0.2
SE11   1  0.176109  0.663979 -0.082197   0.1188  0.2
SE12   1  0.137260  0.215958 -0.015045   0.1094  0.2
SE13   1  0.205116  0.419159  0.134702   0.1088  0.2
SE14   1  0.048218  0.407982  0.034104   0.1060  0.2
SE15   1  0.301949  0.339874  0.101863   0.0958  0.2
SE16   1  0.010399  0.280861  0.023995   0.0955  0.2
SE17   1 -0.086853  0.366074  0.027457   0.0952  0.2
SE18   1  0.036293  0.382538 -0.014955   0.0944  0.2
SE19   1  0.000099  0.204620 -0.017083   0.0916  0.2
SE20   1  0.106529  0.319588  0.105397   0.0892  0.2
SE21   1  0.071037  0.365929  0.006000   0.0871  0.2
SE22   1 -0.085304  0.368660 -0.057647   0.0864  0.2
SE23   1  0.114090  0.525955 -0.060070   0.0854  0.2
SE24   1  0.311432  0.424103  0.068851   0.0843  0.2
SE25   1 -0.094788  0.452606  0.083333   0.0406  0.2
SE26   1 -0.180504  0.370567 -0.058241   0.0776  0.2
SE27   1 -0.015198  0.165390  0.050468   0.0773  0.2
SE28   1 -0.015114  0.388618  0.022402   0.0755  0.2
SE29   1  0.158081  0.442169  0.056906   0.0745  0.2
SE30   1  0.032967  0.370972 -0.082122   0.0720  0.2
SE31   1 -0.083778  0.160645  0.055070   0.0693  0.2
SE32   1  0.147346  0.493263  0.066497   0.0672  0.2
SE33   1  0.017357  0.358864  0.038829   0.0653  0.2
SE34   1 -0.025894  0.074821  0.101810   0.0364  0.2
HKLF 3
END 
