REM Best SHELXD solution:   CC 24.80   CC(weak) 15.76   CFOM  40.56
REM
TITL sad_fa.ins SAD in P622
CELL 0.98000 93.13 93.13 129.92 90.00 90.00 120.00
LATT -1
SYMM X-Y,X,Z
SYMM -Y,X-Y,Z
SYMM -X,-Y,Z
SYMM -X+Y,-X,Z
SYMM Y,-X+Y,Z
SYMM -Y,-X,-Z
SYMM X-Y,-Y,-Z
SYMM X,X-Y,-Z
SYMM Y,X,-Z
SYMM -X+Y,Y,-Z
SYMM -X,-X+Y,-Z
SFAC SE
UNIT 384
SE01   1  0.000000  0.000000  0.000000   0.0833  0.2
SE02   1 -0.428421 -0.211739 -0.332457   0.1663  0.2
SE03   1 -0.212776  0.001640 -0.387372   0.1104  0.2
SE04   1 -0.239868  0.099251 -0.500171   0.1048  0.2
SE05   1 -0.664062 -0.332031 -0.221575   0.0924  0.2
SE06   1  0.000000  0.000000 -0.286458   0.0070  0.2
SE07   1 -0.144531 -0.285393 -0.000151   0.0302  0.2
SE08   1  0.000000  0.000000 -0.406763   0.0041  0.2
SE09   1  0.039955  0.039726  0.005552   0.0230  0.2
SE10   1 -0.418915  0.000000 -0.500000   0.0016  0.2
HKLF 3
END 
