REM Best SHELXD solution:   CC 28.04   CC(weak) 15.10   CFOM  43.14
REM
TITL sad_fa.ins SAD in P622
CELL 0.98000 93.13 93.13 129.92 90.00 90.00 120.00
LATT -1
SYMM X-Y,X,Z
SYMM -Y,X-Y,Z
SYMM -X,-Y,Z
SYMM -X+Y,-X,Z
SYMM Y,-X+Y,Z
SYMM -Y,-X,-Z
SYMM X-Y,-Y,-Z
SYMM X,X-Y,-Z
SYMM Y,X,-Z
SYMM -X+Y,Y,-Z
SYMM -X,-X+Y,-Z
SFAC SE
UNIT 384
SE01   1  0.000000  0.000000  0.221725   0.1667  0.2
SE02   1  0.428795  0.428795  0.500000   0.1582  0.2
SE03   1 -0.213043 -0.216797  0.167394   0.2998  0.2
SE04   1 -0.332031 -0.664062  0.000000   0.1294  0.2
SE05   1  0.332214  0.455513  0.388735   0.1907  0.2
SE06   1 -0.338821 -0.239197  0.281051   0.1822  0.2
SE07   1  0.442307  0.540092  0.326808   0.1767  0.2
SE08   1 -0.411575 -0.167267  0.194347   0.1587  0.2
SE09   1 -0.451332 -0.122360  0.057319   0.1427  0.2
SE10   1 -0.435562 -0.228767  0.108639   0.1413  0.2
SE11   1 -0.122108 -0.190849  0.256293   0.1392  0.2
SE12   1  0.103081  0.103081  0.500000   0.0659  0.2
SE13   1  0.345421  0.651611  0.436570   0.1318  0.2
SE14   1 -0.182442 -0.232285  0.162817   0.1289  0.2
SE15   1 -0.364723 -0.167091  0.187685   0.1282  0.2
SE16   1  0.427010  0.423820  0.245351   0.1231  0.2
SE17   1 -0.412399 -0.282089  0.388777   0.1170  0.2
SE18   1 -0.352531 -0.169922  0.434799   0.1117  0.2
SE19   1  0.246948  0.246948  0.500000   0.0533  0.2
SE20   1 -0.118225 -0.117859  0.100471   0.0902  0.2
SE21   1  0.196846  0.187103  0.498649   0.0788  0.2
SE22   1 -0.306061 -0.184631  0.342608   0.0763  0.2
SE23   1  0.187103  0.183578  0.407126   0.0713  0.2
SE24   1 -0.310478 -0.307945  0.393378   0.0707  0.2
SE25   1  0.037354  0.032379  0.232914   0.0665  0.2
SE26   1  0.000000  0.000000  0.460678   0.0099  0.2
SE27   1 -0.547653 -0.111679  0.111891   0.0595  0.2
SE28   1 -0.308739 -0.314194  0.327956   0.0497  0.2
SE29   1 -0.206924 -0.200752  0.069959   0.0493  0.2
SE30   1 -0.317055 -0.276108  0.107746   0.0478  0.2
SE31   1 -0.332031 -0.664062  0.117035   0.0284  0.2
SE32   1  0.332031  0.664062  0.500000   0.0107  0.2
SE33   1 -0.308304 -0.306503  0.038164   0.0177  0.2
SE34   1 -0.269791 -0.134895  0.000000   0.0079  0.2
HKLF 3
END 
