REM Best SHELXD solution:   CC 35.28   CC(weak) 21.79   CFOM  57.07
REM
TITL sad_fa.ins SAD in P622
CELL 0.98000 93.13 93.13 129.92 90.00 90.00 120.00
LATT -1
SYMM X-Y,X,Z+1/6
SYMM -Y,X-Y,Z+1/3
SYMM -X,-Y,Z+1/2
SYMM -X+Y,-X,Z+2/3
SYMM Y,-X+Y,Z+5/6
SYMM -Y,-X,-Z+5/6
SYMM X-Y,-Y,-Z
SYMM X,X-Y,-Z+1/6
SYMM Y,X,-Z+1/3
SYMM -X+Y,Y,-Z+1/2
SYMM -X,-X+Y,-Z+2/3
SFAC SE
UNIT 384
SE01   1  0.879021  0.549805  0.055992   1.0000  0.2
SE02   1  0.556999  0.434738  0.120825   0.2781  0.2
SE03   1  0.855553  0.610161 -0.033129   0.2681  0.2
SE04   1  0.868866  0.625786 -0.066113   0.2659  0.2
SE05   1  0.789368  0.492744 -0.079902   0.2159  0.2
SE06   1  0.902542  0.558357  0.081205   0.1355  0.2
SE07   1  0.910576  0.666245 -0.000582   0.1353  0.2
SE08   1  1.013794  0.934448 -0.098716   0.1315  0.2
SE09   1  0.799767  0.530067 -0.031806   0.1200  0.2
SE10   1  0.822937  0.332092 -0.083716   0.1197  0.2
SE11   1  0.997673  0.790756 -0.018296   0.1186  0.2
SE12   1  0.785912  0.716011 -0.057188   0.1110  0.2
SE13   1  0.728142  0.271858 -0.083333   0.0506  0.2
SE14   1  1.016632  0.834625  0.050652   0.0967  0.2
SE15   1  0.747162  0.719322 -0.058753   0.0911  0.2
SE16   1  0.793098  0.791634 -0.056950   0.0834  0.2
SE17   1  0.841797  0.556122  0.060705   0.0762  0.2
SE18   1  0.572861  0.418732  0.079806   0.0715  0.2
SE19   1  0.953217  0.501686  0.064403   0.0501  0.2
SE20   1  0.745316  0.871094  0.081954   0.0495  0.2
SE21   1  0.721466  0.485474  0.034649   0.0450  0.2
SE22   1  0.593803  0.406204 -0.083333   0.0147  0.2
HKLF 3
END 
