REM Best SHELXD solution:   CC 28.32   CC(weak) 14.17   CFOM  42.49
REM
TITL sad_fa.ins SAD in P622
CELL 0.98000 93.13 93.13 129.92 90.00 90.00 120.00
LATT -1
SYMM X-Y,X,Z
SYMM -Y,X-Y,Z
SYMM -X,-Y,Z
SYMM -X+Y,-X,Z
SYMM Y,-X+Y,Z
SYMM -Y,-X,-Z
SYMM X-Y,-Y,-Z
SYMM X,X-Y,-Z
SYMM Y,X,-Z
SYMM -X+Y,Y,-Z
SYMM -X,-X+Y,-Z
SFAC SE
UNIT 384
SE01   1  0.000000  0.000000  0.500000   0.0833  0.2
SE02   1 -0.213020 -0.427757  0.168420   0.1615  0.2
SE03   1 -0.329262 -0.444626  0.329572   0.1299  0.2
SE04   1  0.000412 -0.209793  0.111100   0.1057  0.2
SE05   1 -0.253151 -0.553917  0.466238   0.0879  0.2
SE06   1 -0.332031 -0.664062  0.277457   0.0873  0.2
SE07   1 -0.225128 -0.221619  0.443609   0.0830  0.2
SE08   1 -0.063225 -0.186028  0.023048   0.0747  0.2
SE09   1  0.000000  0.000000  0.000000   0.0060  0.2
SE10   1 -0.217674 -0.597542  0.312574   0.0693  0.2
SE11   1  0.001717 -0.113220  0.177077   0.0691  0.2
SE12   1 -0.044624 -0.260551  0.227053   0.0681  0.2
SE13   1 -0.105545 -0.315727  0.031642   0.0618  0.2
SE14   1 -0.459579 -0.456596  0.346096   0.0562  0.2
SE15   1  0.018631 -0.094864  0.276486   0.0515  0.2
SE16   1  0.048927 -0.233086  0.217776   0.0514  0.2
SE17   1  0.042480  0.033089  0.509218   0.0485  0.2
SE18   1 -0.317299 -0.635361  0.064731   0.0426  0.2
SE19   1 -0.120911 -0.243713  0.132289   0.0426  0.2
SE20   1 -0.352196 -0.399857  0.275319   0.0415  0.2
SE21   1 -0.036560 -0.136139  0.068615   0.0410  0.2
SE22   1 -0.388733 -0.386475  0.230239   0.0397  0.2
SE23   1 -0.159454 -0.318649  0.072889   0.0389  0.2
SE24   1 -0.534134 -0.465164  0.351834   0.0353  0.2
SE25   1  0.103645  0.051682  0.612957   0.0290  0.2
SE26   1 -0.220627 -0.560181  0.499488   0.0276  0.2
SE27   1  0.078598  0.077751  0.616468   0.0275  0.2
SE28   1  0.000000 -0.130135  0.000000   0.0135  0.2
SE29   1 -0.197517 -0.406975  0.394732   0.0269  0.2
SE30   1 -0.038872 -0.167664  0.000179   0.0263  0.2
SE31   1 -0.044357 -0.089195  0.113158   0.0220  0.2
SE32   1 -0.152519 -0.267647  0.055368   0.0218  0.2
SE33   1 -0.297958 -0.650032  0.443717   0.0214  0.2
SE34   1 -0.332031 -0.664062  0.237219   0.0201  0.2
SE35   1 -0.112366 -0.263412  0.055891   0.0188  0.2
SE36   1  0.136612  0.072296  0.514406   0.0162  0.2
SE37   1 -0.073013 -0.536507  0.000000   0.0064  0.2
SE38   1 -0.319275 -0.638550  0.000000   0.0039  0.2
SE39   1  0.176888  0.096512  0.568375   0.0055  0.2
HKLF 3
END 
