REM Best SHELXD solution:   CC 30.78   CC(weak) 15.80   CFOM  46.58
REM
TITL sad_fa.ins SAD in P622
CELL 0.98000 93.13 93.13 129.92 90.00 90.00 120.00
LATT -1
SYMM X-Y,X,Z
SYMM -Y,X-Y,Z
SYMM -X,-Y,Z
SYMM -X+Y,-X,Z
SYMM Y,-X+Y,Z
SYMM -Y,-X,-Z
SYMM X-Y,-Y,-Z
SYMM X,X-Y,-Z
SYMM Y,X,-Z
SYMM -X+Y,Y,-Z
SYMM -X,-X+Y,-Z
SFAC SE
UNIT 384
SE01   1  0.000000  0.000000  0.500000   0.0833  0.2
SE02   1 -0.424980 -0.215401  0.166972   0.1330  0.2
SE03   1 -0.242722 -0.110565  0.056037   0.1167  0.2
SE04   1 -0.212898  0.003006  0.111829   0.1067  0.2
SE05   1  0.355377  0.446236  0.548888   0.0913  0.2
SE06   1  0.329697  0.441666  0.668989   0.0880  0.2
SE07   1  0.436150  0.426636  0.779424   0.0870  0.2
SE08   1  0.332031  0.664062  0.720824   0.0860  0.2
SE09   1 -0.299583 -0.177063  0.194346   0.0794  0.2
SE10   1 -0.467842 -0.257248  0.211736   0.0765  0.2
SE11   1 -0.182175 -0.121681  0.024859   0.0733  0.2
SE12   1 -0.269966 -0.060143  0.146838   0.0716  0.2
SE13   1  0.222878  0.228531  0.558531   0.0692  0.2
SE14   1  0.331451  0.285576  0.608304   0.0658  0.2
SE15   1 -0.114731 -0.002220  0.174720   0.0657  0.2
SE16   1 -0.428978 -0.047424  0.000654   0.0651  0.2
SE17   1  0.000000  0.000000  0.213354   0.0105  0.2
SE18   1 -0.262917 -0.213966  0.228224   0.0623  0.2
SE19   1 -0.272400  0.001938  0.085473   0.0607  0.2
SE20   1 -0.238258 -0.278427  0.216215   0.0559  0.2
SE21   1 -0.171875 -0.085938  0.000000   0.0268  0.2
SE22   1  0.143982  0.287956  0.500000   0.0262  0.2
SE23   1  0.458740  0.585075  0.569096   0.0517  0.2
SE24   1 -0.318237 -0.159286  0.070758   0.0491  0.2
SE25   1  0.447128  0.550613  0.609118   0.0450  0.2
SE26   1 -0.167427 -0.044815  0.001979   0.0441  0.2
SE27   1  0.163971  0.085632  0.644235   0.0413  0.2
SE28   1  0.387604  0.612373  0.790857   0.0408  0.2
SE29   1 -0.239731 -0.240891  0.221232   0.0404  0.2
SE30   1  0.387489  0.603836  0.686356   0.0393  0.2
SE31   1  0.111160  0.057274  0.518917   0.0385  0.2
SE32   1  0.322662  0.638474  0.933507   0.0375  0.2
SE33   1 -0.229195 -0.036308  0.162279   0.0372  0.2
SE34   1  0.500000  0.500000  0.643580   0.0152  0.2
SE35   1 -0.043884 -0.040611  0.493757   0.0269  0.2
SE36   1 -0.346695 -0.222992  0.188772   0.0260  0.2
SE37   1 -0.267601 -0.154099  0.057996   0.0256  0.2
SE38   1 -0.486435 -0.107155  0.000168   0.0227  0.2
SE39   1 -0.425026 -0.076241  0.109905   0.0206  0.2
SE40   1  0.332031  0.664062  0.675756   0.0205  0.2
SE41   1  0.471970  0.532974  0.628211   0.0173  0.2
SE42   1  0.425026  0.431244  0.518485   0.0162  0.2
SE43   1  0.373810  0.621674  0.705518   0.0122  0.2
SE44   1 -0.515213 -0.030426  0.000000   0.0059  0.2
SE45   1 -0.410950  0.000000  0.000000   0.0053  0.2
HKLF 3
END 
