REM Best SHELXD solution:   CC 27.38   CC(weak) 15.50   CFOM  42.88
REM
TITL sad_fa.ins SAD in P622
CELL 0.98000 93.13 93.13 129.92 90.00 90.00 120.00
LATT -1
SYMM X-Y,X,Z
SYMM -Y,X-Y,Z
SYMM -X,-Y,Z
SYMM -X+Y,-X,Z
SYMM Y,-X+Y,Z
SYMM -Y,-X,-Z
SYMM X-Y,-Y,-Z
SYMM X,X-Y,-Z
SYMM Y,X,-Z
SYMM -X+Y,Y,-Z
SYMM -X,-X+Y,-Z
SFAC SE
UNIT 384
SE01   1  0.000000  0.000000  0.221522   0.1667  0.2
SE02   1  0.332031 -0.332031  0.000000   0.1627  0.2
SE03   1  0.429909  0.429909  0.500000   0.1581  0.2
SE04   1 -0.213516 -0.215889  0.167210   0.2870  0.2
SE05   1  0.217186  0.424332  0.445356   0.1906  0.2
SE06   1 -0.433846 -0.228180  0.109993   0.1512  0.2
SE07   1 -0.340134 -0.236664  0.281894   0.1415  0.2
SE08   1  0.325577  0.447662  0.388904   0.1399  0.2
SE09   1 -0.442085 -0.118813  0.057581   0.1371  0.2
SE10   1  0.103783  0.103783  0.500000   0.0665  0.2
SE11   1  0.183022  0.349335  0.431621   0.1259  0.2
SE12   1  0.347466  0.651199  0.437198   0.1179  0.2
SE13   1  0.243706  0.243706  0.500000   0.0532  0.2
SE14   1 -0.113861 -0.115471  0.100243   0.0981  0.2
SE15   1 -0.141838 -0.139412  0.055716   0.0876  0.2
SE16   1  0.307533  0.306572  0.392605   0.0834  0.2
SE17   1 -0.265457 -0.238152  0.283435   0.0781  0.2
SE18   1  0.446571  0.544518  0.322651   0.0655  0.2
SE19   1  0.030846  0.037994  0.231987   0.0621  0.2
SE20   1 -0.325493 -0.237099  0.209290   0.0605  0.2
SE21   1  0.000000  0.000000  0.317003   0.0073  0.2
SE22   1  0.542969  0.454552  0.498979   0.0395  0.2
HKLF 3
END 
