REM Best SHELXD solution:   CC 27.23   CC(weak) 15.46   CFOM  42.69
REM
TITL sad_fa.ins SAD in P622
CELL 0.98000 93.13 93.13 129.92 90.00 90.00 120.00
LATT -1
SYMM X-Y,X,Z
SYMM -Y,X-Y,Z
SYMM -X,-Y,Z
SYMM -X+Y,-X,Z
SYMM Y,-X+Y,Z
SYMM -Y,-X,-Z
SYMM X-Y,-Y,-Z
SYMM X,X-Y,-Z
SYMM Y,X,-Z
SYMM -X+Y,Y,-Z
SYMM -X,-X+Y,-Z
SFAC SE
UNIT 384
SE01   1  0.000000  0.000000  0.278618   0.1667  0.2
SE02   1 -0.428917 -0.428917  0.000000   0.1577  0.2
SE03   1  0.220795  0.214828  0.334369   0.3051  0.2
SE04   1  0.664062  0.332031  0.500000   0.1461  0.2
SE05   1 -0.326714 -0.452461  0.112274   0.2586  0.2
SE06   1 -0.444153 -0.541122  0.172515   0.2432  0.2
SE07   1  0.448669  0.113914  0.443206   0.1848  0.2
SE08   1  0.339180  0.239708  0.218583   0.1769  0.2
SE09   1  0.456894  0.006454  0.437545   0.1529  0.2
SE10   1  0.410736  0.164986  0.305953   0.1521  0.2
SE11   1 -0.339195 -0.644814  0.064349   0.1389  0.2
SE12   1  0.129944  0.072044  0.290261   0.1377  0.2
SE13   1 -0.205589 -0.419930  0.051856   0.1360  0.2
SE14   1 -0.424492 -0.427505  0.254484   0.1337  0.2
SE15   1  0.033455  0.043922  0.279372   0.1183  0.2
SE16   1 -0.249107 -0.249107  0.000000   0.0579  0.2
SE17   1  0.227745  0.124306  0.161927   0.1121  0.2
SE18   1 -0.190636 -0.190636  0.000000   0.0456  0.2
SE19   1  0.518829  0.036613  0.381573   0.0820  0.2
SE20   1 -0.181046 -0.353958  0.063592   0.0777  0.2
SE21   1  0.364723  0.080566  0.243345   0.0692  0.2
SE22   1 -0.331757 -0.333183 -0.055955   0.0649  0.2
SE23   1  0.123291  0.123016  0.394057   0.0556  0.2
SE24   1  0.368881  0.000000  0.500000   0.0267  0.2
SE25   1  0.664062  0.332031  0.380096   0.0226  0.2
SE26   1 -0.332031 -0.664062  0.000000   0.0049  0.2
SE27   1  0.266739  0.133369  0.500000   0.0014  0.2
SE28   1  0.000000  0.000000  0.365102   0.0000  0.2
HKLF 3
END 
