REM Best SHELXD solution:   CC 35.63   CC(weak) 21.08   CFOM  56.71
REM
TITL sad_fa.ins SAD in P622
CELL 0.98000 93.13 93.13 129.92 90.00 90.00 120.00
LATT -1
SYMM X-Y,X,Z+1/6
SYMM -Y,X-Y,Z+1/3
SYMM -X,-Y,Z+1/2
SYMM -X+Y,-X,Z+2/3
SYMM Y,-X+Y,Z+5/6
SYMM -Y,-X,-Z+5/6
SYMM X-Y,-Y,-Z
SYMM X,X-Y,-Z+1/6
SYMM Y,X,-Z+1/3
SYMM -X+Y,Y,-Z+1/2
SYMM -X,-X+Y,-Z+2/3
SFAC SE
UNIT 384
SE01   1  0.121590  0.452881  0.054952   1.0000  0.2
SE02   1  0.441368  0.566986  0.121201   0.2386  0.2
SE03   1  0.144508  0.389977 -0.036236   0.2385  0.2
SE04   1  0.212502  0.510086 -0.080493   0.2197  0.2
SE05   1  0.130409  0.374504 -0.064356   0.1988  0.2
SE06   1  0.213493  0.285522 -0.059347   0.1279  0.2
SE07   1  0.165703  0.036583  0.026805   0.1263  0.2
SE08   1  0.032333  0.091415  0.051469   0.1191  0.2
SE09   1  0.184364 -0.107399  0.078690   0.1180  0.2
SE10   1  0.139336  0.214012 -0.013957   0.1148  0.2
SE11   1  0.177628  0.670517 -0.082194   0.1139  0.2
SE12   1  0.054855  0.412460  0.031951   0.1065  0.2
SE13   1  0.265236  0.603287 -0.122230   0.1032  0.2
SE14   1 -0.017448  0.166649  0.048846   0.1010  0.2
SE15   1  0.149429  0.436569  0.060575   0.0999  0.2
SE16   1 -0.086792  0.268547  0.009905   0.0988  0.2
SE17   1  0.018051  0.286331  0.015534   0.0927  0.2
SE18   1  0.078926  0.418900  0.059240   0.0921  0.2
SE19   1  0.192291  0.536728  0.144945   0.0914  0.2
SE20   1  0.029037  0.412827 -0.085017   0.0904  0.2
SE21   1  0.258179 -0.042320  0.024650   0.0900  0.2
SE22   1  0.252594  0.720406 -0.038862   0.0863  0.2
SE23   1 -0.141434  0.337677  0.061510   0.0804  0.2
SE24   1  0.147072  0.186348 -0.059651   0.0775  0.2
SE25   1  0.269951  0.726562 -0.083333   0.0737  0.2
SE26   1  0.217278  0.156052 -0.055630   0.0729  0.2
SE27   1  0.280602  0.512016  0.037755   0.0728  0.2
SE28   1  0.228836  0.558426 -0.114327   0.0697  0.2
SE29   1  0.034248  0.372810 -0.077784   0.0652  0.2
SE30   1  0.366333  0.577690  0.000933   0.0650  0.2
SE31   1  0.084846  0.461380  0.059575   0.0573  0.2
SE32   1  0.240456  0.205612  0.041063   0.0527  0.2
SE33   1  0.065178  0.349533  0.034595   0.0452  0.2
SE34   1  0.291710 -0.047195  0.061676   0.0374  0.2
HKLF 3
END 
