REM Best SHELXD solution:   CC 27.35   CC(weak) 16.06   CFOM  43.41
REM
TITL sad_fa.ins SAD in P622
CELL 0.98000 93.13 93.13 129.92 90.00 90.00 120.00
LATT -1
SYMM X-Y,X,Z
SYMM -Y,X-Y,Z
SYMM -X,-Y,Z
SYMM -X+Y,-X,Z
SYMM Y,-X+Y,Z
SYMM -Y,-X,-Z
SYMM X-Y,-Y,-Z
SYMM X,X-Y,-Z
SYMM Y,X,-Z
SYMM -X+Y,Y,-Z
SYMM -X,-X+Y,-Z
SFAC SE
UNIT 384
SE01   1  0.000000  0.000000  0.500000   0.0833  0.2
SE02   1 -0.426819 -0.213058  0.167074   0.1547  0.2
SE03   1 -0.214531 -0.207611  0.111782   0.1228  0.2
SE04   1 -0.337212 -0.236481 -0.000223   0.1030  0.2
SE05   1 -0.446220 -0.121132  0.334906   0.0917  0.2
SE06   1 -0.087204 -0.066742  0.408592   0.0825  0.2
SE07   1 -0.664062 -0.332031  0.279820   0.0713  0.2
SE08   1 -0.546661 -0.172546  0.459024   0.0547  0.2
SE09   1 -0.184029 -0.127205  0.022872   0.0527  0.2
SE10   1 -0.429031 -0.308098  0.125464   0.0496  0.2
SE11   1 -0.551628 -0.102570  0.392115   0.0487  0.2
SE12   1 -0.500000  0.000000  0.454957   0.0236  0.2
SE13   1 -0.316467 -0.157959 -0.072480   0.0464  0.2
SE14   1 -0.122261 -0.118675  0.175609   0.0414  0.2
SE15   1 -0.542107 -0.067368  0.364871   0.0372  0.2
SE16   1  0.000000  0.000000  0.212090   0.0058  0.2
SE17   1 -0.350769 -0.175079  0.157456   0.0327  0.2
SE18   1 -0.130348 -0.212540  0.224198   0.0308  0.2
SE19   1 -0.076920 -0.077492  0.384664   0.0293  0.2
SE20   1 -0.482941 -0.378113 -0.000196   0.0289  0.2
SE21   1 -0.039528 -0.038315  0.495620   0.0214  0.2
SE22   1 -0.447975 -0.091888  0.351172   0.0190  0.2
HKLF 3
END 
