REM Best SHELXD solution:   CC 35.82   CC(weak) 19.80   CFOM  55.62
REM
TITL sad_fa.ins SAD in P622
CELL 0.98000 93.13 93.13 129.92 90.00 90.00 120.00
LATT -1
SYMM X-Y,X,Z+1/6
SYMM -Y,X-Y,Z+1/3
SYMM -X,-Y,Z+1/2
SYMM -X+Y,-X,Z+2/3
SYMM Y,-X+Y,Z+5/6
SYMM -Y,-X,-Z+5/6
SYMM X-Y,-Y,-Z
SYMM X,X-Y,-Z+1/6
SYMM Y,X,-Z+1/3
SYMM -X+Y,Y,-Z+1/2
SYMM -X,-X+Y,-Z+2/3
SFAC SE
UNIT 384
SE01   1  0.878433  0.547058  0.054708   1.0000  0.2
SE02   1  0.558762  0.433792  0.122153   0.2381  0.2
SE03   1  0.870399  0.625984 -0.063859   0.2159  0.2
SE04   1  0.857742  0.615089 -0.036315   0.2090  0.2
SE05   1  0.787674  0.490768 -0.079469   0.2020  0.2
SE06   1  0.909622  0.670082  0.226921   0.1567  0.2
SE07   1  1.061333  0.968483  0.219300   0.1258  0.2
SE08   1  0.747360  0.468544  0.205921   0.1243  0.2
SE09   1  0.751053  0.529861  0.078491   0.1190  0.2
SE10   1  0.927376  0.659424  0.158144   0.1152  0.2
SE11   1  0.824341  0.493752  0.250174   0.1119  0.2
SE12   1  0.785637  0.716621 -0.059370   0.1015  0.2
SE13   1  0.813629  0.703384  0.087809   0.0982  0.2
SE14   1  0.862717  0.787346 -0.014133   0.0966  0.2
SE15   1  0.718048  0.380798  0.161193   0.0960  0.2
SE16   1  0.734093  0.396751 -0.121182   0.0958  0.2
SE17   1  0.938805  0.836273  0.265948   0.0951  0.2
SE18   1  0.437973  0.455643  0.103981   0.0949  0.2
SE19   1  0.933617  0.867233  0.250000   0.0437  0.2
SE20   1  0.634079  0.215393  0.164880   0.0867  0.2
SE21   1  0.855988  0.663864  0.062003   0.0867  0.2
SE22   1  0.384529  0.412834  0.084359   0.0866  0.2
SE23   1  1.020187  0.708336  0.174225   0.0851  0.2
SE24   1  0.724388  0.494545  0.036345   0.0848  0.2
SE25   1  1.183777  1.017426  0.214259   0.0827  0.2
SE26   1  0.700577  0.660324  0.101231   0.0812  0.2
SE27   1  0.849159  0.563858  0.056299   0.0805  0.2
SE28   1  0.412354  0.526390  0.058418   0.0775  0.2
SE29   1  0.921028  0.580757  0.057140   0.0773  0.2
SE30   1  0.889702  0.874924  0.302349   0.0762  0.2
SE31   1  0.762558  0.472603  0.092582   0.0733  0.2
SE32   1  1.155159  0.938652  0.279603   0.0716  0.2
SE33   1  1.010208  0.610382  0.069419   0.0701  0.2
SE34   1  1.200310  1.153992  0.202256   0.0700  0.2
SE35   1  0.896751  0.548668  0.082508   0.0678  0.2
SE36   1  1.207161  0.994484  0.146693   0.0676  0.2
SE37   1  1.170120  1.072662  0.142964   0.0647  0.2
SE38   1  0.622253  0.526848  0.121308   0.0624  0.2
SE39   1  1.196266  1.246933  0.212466   0.0596  0.2
SE40   1  1.170143  0.903496  0.128209   0.0523  0.2
SE41   1  0.734772  0.538506  0.036730   0.0520  0.2
SE42   1  0.915215  0.539070  0.059787   0.0517  0.2
SE43   1  0.453110  0.366356  0.054686   0.0505  0.2
SE44   1  0.897888  0.682945  0.113748   0.0470  0.2
SE45   1  0.935135  0.649895  0.037006   0.0465  0.2
HKLF 3
END 
