REM Best SHELXD solution:   CC 35.22   CC(weak) 23.11   CFOM  58.33
REM
TITL sad_fa.ins SAD in P622
CELL 0.98000 93.13 93.13 129.92 90.00 90.00 120.00
LATT -1
SYMM X-Y,X,Z+1/6
SYMM -Y,X-Y,Z+1/3
SYMM -X,-Y,Z+1/2
SYMM -X+Y,-X,Z+2/3
SYMM Y,-X+Y,Z+5/6
SYMM -Y,-X,-Z+5/6
SYMM X-Y,-Y,-Z
SYMM X,X-Y,-Z+1/6
SYMM Y,X,-Z+1/3
SYMM -X+Y,Y,-Z+1/2
SYMM -X,-X+Y,-Z+2/3
SFAC SE
UNIT 384
SE01   1  0.879112  0.549683  0.054973   1.0000  0.2
SE02   1  0.558098  0.435661  0.121590   0.2507  0.2
SE03   1  0.787491  0.489380 -0.079569   0.2263  0.2
SE04   1  0.867783  0.624916 -0.063174   0.2179  0.2
SE05   1  0.854599  0.607559 -0.036089   0.2168  0.2
SE06   1  0.825943  0.331253 -0.083284   0.1071  0.2
SE07   1  1.008316  0.935081 -0.105253   0.0981  0.2
SE08   1  0.737190  0.740738 -0.001517   0.0916  0.2
SE09   1  0.834824  0.818893 -0.117129   0.0880  0.2
SE10   1  0.713875  0.733261 -0.151264   0.0844  0.2
SE11   1  0.850014  0.563858  0.061518   0.0828  0.2
SE12   1  0.784813  0.719925 -0.054594   0.0766  0.2
SE13   1  0.873116  0.892403  0.031294   0.0709  0.2
SE14   1  0.829979  0.646675  0.083703   0.0659  0.2
SE15   1  0.452896  0.367653  0.056591   0.0615  0.2
SE16   1  0.592705  0.407295 -0.083333   0.0282  0.2
SE17   1  0.755196  0.448608  0.040475   0.0427  0.2
HKLF 3
END 
