REM Best SHELXD solution:   CC 25.45   CC(weak) 17.52   CFOM  42.97
REM
TITL sad_fa.ins SAD in P622
CELL 0.98000 93.13 93.13 129.92 90.00 90.00 120.00
LATT -1
SYMM X-Y,X,Z
SYMM -Y,X-Y,Z
SYMM -X,-Y,Z
SYMM -X+Y,-X,Z
SYMM Y,-X+Y,Z
SYMM -Y,-X,-Z
SYMM X-Y,-Y,-Z
SYMM X,X-Y,-Z
SYMM Y,X,-Z
SYMM -X+Y,Y,-Z
SYMM -X,-X+Y,-Z
SFAC SE
UNIT 384
SE01   1  0.000000  0.000000  0.278023   0.1667  0.2
SE02   1  0.221886  0.212959  0.332760   0.3498  0.2
SE03   1  0.430756  0.430756  0.000000   0.1720  0.2
SE04   1  0.664062  0.332031  0.500000   0.1618  0.2
SE05   1  0.457443  0.329926 -0.111556   0.2208  0.2
SE06   1  0.417290  0.212357 -0.052756   0.1317  0.2
SE07   1  0.347672  0.243309 -0.024356   0.1184  0.2
SE08   1  0.272438  0.273209  0.306297   0.1163  0.2
SE09   1  0.000000  0.000000  0.230608   0.0188  0.2
SE10   1  0.441780  0.220886  0.389819   0.1099  0.2
SE11   1 -0.097839 -0.049866  0.145081   0.1011  0.2
SE12   1  0.246254  0.246254  0.000000   0.0324  0.2
SE13   1  0.226105  0.113052  0.500000   0.0249  0.2
SE14   1  0.369125  0.209229 -0.001547   0.0461  0.2
SE15   1  0.664062  0.332031  0.454245   0.0346  0.2
SE16   1  0.000000  0.000000  0.182203   0.0021  0.2
SE17   1  0.442169  0.197456  0.428132   0.0009  0.2
SE18   1  0.367081  0.000000  0.500000   0.0001  0.2
HKLF 3
END 
