REM Best SHELXD solution:   CC 35.66   CC(weak) 22.84   CFOM  58.50
REM
TITL sad_fa.ins SAD in P622
CELL 0.98000 93.13 93.13 129.92 90.00 90.00 120.00
LATT -1
SYMM X-Y,X,Z+1/6
SYMM -Y,X-Y,Z+1/3
SYMM -X,-Y,Z+1/2
SYMM -X+Y,-X,Z+2/3
SYMM Y,-X+Y,Z+5/6
SYMM -Y,-X,-Z+5/6
SYMM X-Y,-Y,-Z
SYMM X,X-Y,-Z+1/6
SYMM Y,X,-Z+1/3
SYMM -X+Y,Y,-Z+1/2
SYMM -X,-X+Y,-Z+2/3
SFAC SE
UNIT 384
SE01   1  0.119774  0.449554  0.055995   1.0000  0.2
SE02   1  0.441696  0.565956  0.122293   0.2645  0.2
SE03   1  0.130333  0.373978 -0.066771   0.2347  0.2
SE04   1  0.145866  0.390289 -0.033401   0.2309  0.2
SE05   1  0.208595  0.506485 -0.081514   0.2248  0.2
SE06   1  0.039490  0.438126 -0.026994   0.1442  0.2
SE07   1  0.112808  0.526100 -0.058520   0.1070  0.2
SE08   1  0.004051  0.212944 -0.019067   0.1040  0.2
SE09   1  0.189285  0.536034  0.142090   0.1001  0.2
SE10   1  0.178154  0.284874 -0.024857   0.0934  0.2
SE11   1  0.380829  0.577271 -0.048544   0.0924  0.2
SE12   1  0.270912  0.541824  0.250000   0.0447  0.2
SE13   1  0.273781  0.509132  0.036591   0.0818  0.2
SE14   1  0.336617  0.482056 -0.106438   0.0784  0.2
SE15   1  0.015678  0.354065  0.034036   0.0764  0.2
SE16   1 -0.013489  0.389626  0.020025   0.0648  0.2
SE17   1  0.301018  0.336372  0.102412   0.0616  0.2
HKLF 3
END 
