REM Best SHELXD solution:   CC 25.35   CC(weak) 16.60   CFOM  41.94
REM
TITL sad_fa.ins SAD in P622
CELL 0.98000 93.13 93.13 129.92 90.00 90.00 120.00
LATT -1
SYMM X-Y,X,Z
SYMM -Y,X-Y,Z
SYMM -X,-Y,Z
SYMM -X+Y,-X,Z
SYMM Y,-X+Y,Z
SYMM -Y,-X,-Z
SYMM X-Y,-Y,-Z
SYMM X,X-Y,-Z
SYMM Y,X,-Z
SYMM -X+Y,Y,-Z
SYMM -X,-X+Y,-Z
SFAC SE
UNIT 384
SE01   1  0.000000  0.000000  0.221560   0.1667  0.2
SE02   1 -0.332031  0.332031  0.000000   0.2070  0.2
SE03   1  0.430931  0.430931  0.500000   0.1674  0.2
SE04   1 -0.219650 -0.212532  0.167287   0.3215  0.2
SE05   1 -0.239685 -0.128922  0.335970   0.1974  0.2
SE06   1  0.218170  0.422264  0.447965   0.1771  0.2
SE07   1  0.000000  0.000000  0.265296   0.0278  0.2
SE08   1 -0.107483 -0.053741  0.000000   0.0678  0.2
SE09   1  0.344727  0.646729  0.437119   0.1113  0.2
SE10   1  0.242722  0.242722  0.500000   0.0505  0.2
SE11   1  0.424210  0.568535  0.408465   0.0930  0.2
SE12   1  0.242577  0.485291  0.325448   0.0750  0.2
SE13   1 -0.029305  0.000000  0.000000   0.0372  0.2
SE14   1 -0.113136 -0.113136  0.000000   0.0325  0.2
SE15   1  0.000000  0.000000  0.316281   0.0101  0.2
SE16   1  0.549332  0.450668  0.500000   0.0284  0.2
SE17   1  0.423874  0.427124  0.279870   0.0331  0.2
HKLF 3
END 
