REM Best SHELXD solution:   CC 27.69   CC(weak) 14.56   CFOM  42.24
REM
TITL sad_fa.ins SAD in P622
CELL 0.98000 93.13 93.13 129.92 90.00 90.00 120.00
LATT -1
SYMM X-Y,X,Z
SYMM -Y,X-Y,Z
SYMM -X,-Y,Z
SYMM -X+Y,-X,Z
SYMM Y,-X+Y,Z
SYMM -Y,-X,-Z
SYMM X-Y,-Y,-Z
SYMM X,X-Y,-Z
SYMM Y,X,-Z
SYMM -X+Y,Y,-Z
SYMM -X,-X+Y,-Z
SFAC SE
UNIT 384
SE01   1  0.000000  0.000000  0.166805   0.1667  0.2
SE02   1  0.213570  0.427147  0.500000   0.1618  0.2
SE03   1  0.215500  0.213760  0.221599   0.2252  0.2
SE04   1  0.236320  0.340118  0.332092   0.1690  0.2
SE05   1  0.451500  0.331032  0.002270   0.1642  0.2
SE06   1  0.000000  0.120499  0.500000   0.0574  0.2
SE07   1  0.252541  0.505081  0.500000   0.0554  0.2
SE08   1 -0.046005  0.135361  0.584651   0.1104  0.2
SE09   1 -0.034027 -0.044945  0.161014   0.1102  0.2
SE10   1  0.306999  0.185051 -0.044950   0.1074  0.2
SE11   1  0.116447  0.200912  0.320885   0.1062  0.2
SE12   1 -0.068794  0.068794  0.500000   0.0530  0.2
SE13   1  0.430351  0.430428  0.110647   0.1025  0.2
SE14   1  0.664062  0.332031  0.055741   0.0980  0.2
SE15   1  0.478340  0.387016 -0.001535   0.0949  0.2
SE16   1  0.382385  0.616997  0.525195   0.0917  0.2
SE17   1  0.641945  0.301048  0.175628   0.0905  0.2
SE18   1  0.223907  0.436836  0.246535   0.0862  0.2
SE19   1  0.500000  0.500000  0.208415   0.0408  0.2
SE20   1  0.030952  0.062782  0.279739   0.0711  0.2
SE21   1  0.273376  0.272469  0.244431   0.0703  0.2
SE22   1  0.000000  0.159019  0.500000   0.0340  0.2
SE23   1  0.000000  0.000000  0.073952   0.0109  0.2
SE24   1  0.028961  0.014198  0.213615   0.0517  0.2
SE25   1  0.004448  0.110313  0.569144   0.0501  0.2
SE26   1  0.120552  0.342812  0.526003   0.0490  0.2
SE27   1 -0.002823  0.068398  0.571181   0.0481  0.2
SE28   1  0.492432  0.266411 -0.000869   0.0430  0.2
SE29   1  0.240219  0.262932  0.333118   0.0386  0.2
SE30   1  0.487091  0.489609  0.523851   0.0346  0.2
SE31   1  0.545204  0.540779  0.273391   0.0323  0.2
SE32   1  0.230110  0.224136 -0.040906   0.0269  0.2
SE33   1  0.089905  0.044907  0.212300   0.0261  0.2
SE34   1  0.445404  0.445404  0.500000   0.0130  0.2
SE35   1  0.119156  0.238503  0.336120   0.0253  0.2
SE36   1  0.408730  0.592026  0.531823   0.0237  0.2
SE37   1  0.332031  0.664062  0.656213   0.0229  0.2
SE38   1  0.536369  0.298958  0.011184   0.0225  0.2
SE39   1  0.082207  0.128624  0.325114   0.0067  0.2
HKLF 3
END 
