REM Best SHELXD solution:   CC 35.34   CC(weak) 23.03   CFOM  58.37
REM
TITL sad_fa.ins SAD in P622
CELL 0.98000 93.13 93.13 129.92 90.00 90.00 120.00
LATT -1
SYMM X-Y,X,Z+1/6
SYMM -Y,X-Y,Z+1/3
SYMM -X,-Y,Z+1/2
SYMM -X+Y,-X,Z+2/3
SYMM Y,-X+Y,Z+5/6
SYMM -Y,-X,-Z+5/6
SYMM X-Y,-Y,-Z
SYMM X,X-Y,-Z+1/6
SYMM Y,X,-Z+1/3
SYMM -X+Y,Y,-Z+1/2
SYMM -X,-X+Y,-Z+2/3
SFAC SE
UNIT 384
SE01   1  0.119919  0.449402  0.055854   1.0000  0.2
SE02   1  0.440834  0.567970  0.122402   0.2619  0.2
SE03   1  0.132156  0.374954 -0.066109   0.2314  0.2
SE04   1  0.145279  0.389450 -0.034814   0.2063  0.2
SE05   1  0.209404  0.504250 -0.081462   0.2044  0.2
SE06   1  0.031326  0.093910  0.052891   0.1360  0.2
SE07   1  0.115150  0.526894 -0.059356   0.1055  0.2
SE08   1  0.211807  0.281860 -0.058299   0.0937  0.2
SE09   1  0.285667  0.666237  0.000039   0.0871  0.2
SE10   1  0.365227  0.580879  0.001552   0.0844  0.2
SE11   1  0.208504  0.546417  0.041781   0.0782  0.2
SE12   1  0.263130  0.308937 -0.132949   0.0759  0.2
SE13   1  0.212105  0.208214 -0.184672   0.0686  0.2
SE14   1  0.157242  0.444336  0.053805   0.0658  0.2
SE15   1  0.301651  0.337975  0.101330   0.0562  0.2
SE16   1 -0.044968  0.410919  0.082343   0.0481  0.2
SE17   1  0.032501  0.370720 -0.080571   0.0122  0.2
HKLF 3
END 
