REM Best SHELXD solution:   CC 35.41   CC(weak) 19.07   CFOM  54.47
REM
TITL sad_fa.ins SAD in P622
CELL 0.98000 93.13 93.13 129.92 90.00 90.00 120.00
LATT -1
SYMM X-Y,X,Z+1/6
SYMM -Y,X-Y,Z+1/3
SYMM -X,-Y,Z+1/2
SYMM -X+Y,-X,Z+2/3
SYMM Y,-X+Y,Z+5/6
SYMM -Y,-X,-Z+5/6
SYMM X-Y,-Y,-Z
SYMM X,X-Y,-Z+1/6
SYMM Y,X,-Z+1/3
SYMM -X+Y,Y,-Z+1/2
SYMM -X,-X+Y,-Z+2/3
SFAC SE
UNIT 384
SE01   1  0.120033  0.449226  0.055753   1.0000  0.2
SE02   1  0.131676  0.374786 -0.066211   0.2577  0.2
SE03   1  0.124947  0.560616 -0.213824   0.2311  0.2
SE04   1  0.209930  0.504898 -0.080849   0.1806  0.2
SE05   1  0.151894  0.392632 -0.037387   0.1652  0.2
SE06   1  0.144478  0.537560 -0.032846   0.1376  0.2
SE07   1  0.123116  0.163208  0.196223   0.1338  0.2
SE08   1  0.093803  0.032059  0.278246   0.1192  0.2
SE09   1  0.289482  0.552864  0.010265   0.1172  0.2
SE10   1  0.211563  0.282463 -0.057900   0.1158  0.2
SE11   1  0.035423  0.387650 -0.016624   0.1150  0.2
SE12   1  0.178307  0.667213 -0.082875   0.1148  0.2
SE13   1 -0.033226  0.303505 -0.023281   0.1106  0.2
SE14   1  0.365639  0.580208  0.001184   0.1099  0.2
SE15   1  0.253662  0.573334  0.000722   0.1086  0.2
SE16   1  0.163940  0.679367 -0.176397   0.1082  0.2
SE17   1  0.012947  0.683136 -0.067325   0.1071  0.2
SE18   1  0.048210  0.407188  0.035972   0.1065  0.2
SE19   1  0.257797  0.397423 -0.083863   0.1053  0.2
SE20   1  0.164482 -0.015022  0.283357   0.1047  0.2
SE21   1  0.067825  0.507133 -0.062371   0.1040  0.2
SE22   1  0.119789  0.732574 -0.067256   0.1028  0.2
SE23   1  0.152756  0.441208  0.059288   0.1021  0.2
SE24   1  0.180557  0.481331 -0.150309   0.0986  0.2
SE25   1  0.008514  0.281586  0.023281   0.0984  0.2
SE26   1  0.112610  0.525543 -0.062414   0.0902  0.2
SE27   1 -0.036545  0.660896 -0.102358   0.0841  0.2
SE28   1 -0.079597  0.227394  0.025626   0.0820  0.2
SE29   1  0.449875  0.631622 -0.033209   0.0814  0.2
SE30   1  0.080460  0.458328  0.061058   0.0793  0.2
SE31   1  0.034706  0.419418 -0.039963   0.0782  0.2
SE32   1  0.033371  0.372635 -0.080627   0.0761  0.2
SE33   1  0.004356  0.215271 -0.017545   0.0747  0.2
SE34   1  0.384918  0.579399 -0.043903   0.0743  0.2
SE35   1  0.516541  0.664215 -0.058437   0.0683  0.2
SE36   1 -0.088142  0.367844 -0.057345   0.0659  0.2
SE37   1  0.317276  0.525352  0.058768   0.0553  0.2
SE38   1 -0.159004  0.266937 -0.099312   0.0543  0.2
SE39   1  0.070549  0.461739 -0.009062   0.0339  0.2
HKLF 3
END 
