REM Best SHELXD solution:   CC 34.47   CC(weak) 23.34   CFOM  57.81
REM
TITL sad_fa.ins SAD in P622
CELL 0.98000 93.13 93.13 129.92 90.00 90.00 120.00
LATT -1
SYMM X-Y,X,Z+1/6
SYMM -Y,X-Y,Z+1/3
SYMM -X,-Y,Z+1/2
SYMM -X+Y,-X,Z+2/3
SYMM Y,-X+Y,Z+5/6
SYMM -Y,-X,-Z+5/6
SYMM X-Y,-Y,-Z
SYMM X,X-Y,-Z+1/6
SYMM Y,X,-Z+1/3
SYMM -X+Y,Y,-Z+1/2
SYMM -X,-X+Y,-Z+2/3
SFAC SE
UNIT 384
SE01   1  0.878075  0.547401  0.055754   1.0000  0.2
SE02   1  0.789192  0.492218 -0.080899   0.2586  0.2
SE03   1  0.854736  0.608559 -0.036226   0.2442  0.2
SE04   1  0.873894  0.441292 -0.211084   0.2290  0.2
SE05   1  0.867950  0.625038 -0.065803   0.2246  0.2
SE06   1  0.827812  0.817192 -0.113020   0.1107  0.2
SE07   1  0.959969  0.300148 -0.230623   0.1021  0.2
SE08   1  0.836609  0.752296 -0.110220   0.0886  0.2
SE09   1  0.729370  0.270630 -0.083333   0.0407  0.2
SE10   1  0.807930  0.770706 -0.163825   0.0767  0.2
SE11   1  0.794647  0.796532 -0.183656   0.0686  0.2
HKLF 3
END 
