REM Best SHELXD solution:   CC 35.48   CC(weak) 20.79   CFOM  56.26
REM
TITL sad_fa.ins SAD in P622
CELL 0.98000 93.13 93.13 129.92 90.00 90.00 120.00
LATT -1
SYMM X-Y,X,Z+1/6
SYMM -Y,X-Y,Z+1/3
SYMM -X,-Y,Z+1/2
SYMM -X+Y,-X,Z+2/3
SYMM Y,-X+Y,Z+5/6
SYMM -Y,-X,-Z+5/6
SYMM X-Y,-Y,-Z
SYMM X,X-Y,-Z+1/6
SYMM Y,X,-Z+1/3
SYMM -X+Y,Y,-Z+1/2
SYMM -X,-X+Y,-Z+2/3
SFAC SE
UNIT 384
SE01   1  0.120041  0.449287  0.055785   1.0000  0.2
SE02   1  0.439796  0.565887  0.121723   0.2487  0.2
SE03   1  0.130089  0.374138 -0.065832   0.2195  0.2
SE04   1  0.213470  0.509087 -0.080516   0.2073  0.2
SE05   1  0.145561  0.389038 -0.035726   0.1602  0.2
SE06   1  0.032143  0.094086  0.054292   0.1495  0.2
SE07   1  0.187019  0.536057  0.143308   0.1221  0.2
SE08   1  0.176643  0.511124  0.248824   0.1219  0.2
SE09   1  0.289505  0.553032  0.009891   0.1104  0.2
SE10   1  0.070488  0.366989  0.004920   0.1073  0.2
SE11   1  0.149338  0.539368 -0.033183   0.1011  0.2
SE12   1 -0.080017 -0.015144  0.066173   0.1010  0.2
SE13   1  0.213371  0.282761 -0.057847   0.0943  0.2
SE14   1 -0.015274  0.165199  0.049355   0.0893  0.2
SE15   1 -0.012543  0.388138  0.023100   0.0868  0.2
SE16   1  0.365433  0.579987  0.000950   0.0862  0.2
SE17   1  0.300476  0.341995  0.102061   0.0839  0.2
SE18   1 -0.146950  0.333344  0.060767   0.0835  0.2
SE19   1 -0.244118 -0.044128  0.051036   0.0802  0.2
SE20   1  0.450150  0.632988  0.057258   0.0800  0.2
SE21   1  0.385445  0.580040 -0.044323   0.0716  0.2
SE22   1  0.005936  0.213188 -0.018131   0.0675  0.2
SE23   1  0.030228  0.371101 -0.079973   0.0637  0.2
SE24   1  0.158348  0.442436  0.056483   0.0592  0.2
SE25   1  0.086967  0.465004  0.058816   0.0570  0.2
SE26   1  0.008446  0.069168  0.109814   0.0526  0.2
SE27   1  0.317673  0.526154  0.057476   0.0511  0.2
SE28   1  0.144234  0.493675  0.066416   0.0453  0.2
HKLF 3
END 
