REM Best SHELXD solution:   CC 34.71   CC(weak) 21.80   CFOM  56.51
REM
TITL sad_fa.ins SAD in P622
CELL 0.98000 93.13 93.13 129.92 90.00 90.00 120.00
LATT -1
SYMM X-Y,X,Z+1/6
SYMM -Y,X-Y,Z+1/3
SYMM -X,-Y,Z+1/2
SYMM -X+Y,-X,Z+2/3
SYMM Y,-X+Y,Z+5/6
SYMM -Y,-X,-Z+5/6
SYMM X-Y,-Y,-Z
SYMM X,X-Y,-Z+1/6
SYMM Y,X,-Z+1/3
SYMM -X+Y,Y,-Z+1/2
SYMM -X,-X+Y,-Z+2/3
SFAC SE
UNIT 384
SE01   1  0.878761  0.546577  0.055012   1.0000  0.2
SE02   1  0.557693  0.434746  0.121619   0.2329  0.2
SE03   1  0.855324  0.613319 -0.037091   0.2170  0.2
SE04   1  0.788208  0.491348 -0.079268   0.2060  0.2
SE05   1  0.868584  0.625191 -0.063344   0.1987  0.2
SE06   1  0.925987  0.657623  0.158818   0.1195  0.2
SE07   1  0.786613  0.713791 -0.057865   0.1170  0.2
SE08   1  0.801216  0.766815 -0.159989   0.1102  0.2
SE09   1  0.824371  0.330467 -0.083660   0.1093  0.2
SE10   1  0.814621  0.704994  0.087751   0.1061  0.2
SE11   1  0.834190  0.818375 -0.117037   0.0964  0.2
SE12   1  0.734093  0.395111 -0.122543   0.0914  0.2
SE13   1  0.809433  0.462364  0.144818   0.0883  0.2
SE14   1  0.732353  0.647545 -0.157251   0.0873  0.2
SE15   1  0.627289  0.447624 -0.130810   0.0851  0.2
SE16   1  0.966934  0.612747 -0.015119   0.0837  0.2
SE17   1  0.872513  0.262733 -0.067103   0.0791  0.2
SE18   1  0.920883  0.580551  0.059226   0.0760  0.2
SE19   1  0.863434  0.785057 -0.011455   0.0755  0.2
SE20   1  0.850121  0.563614  0.059336   0.0713  0.2
SE21   1  0.764397  0.476837  0.092827   0.0630  0.2
SE22   1  0.785477  0.845215 -0.055184   0.0457  0.2
HKLF 3
END 
