REM Best SHELXD solution:   CC 26.97   CC(weak) 16.57   CFOM  43.54
REM
TITL sad_fa.ins SAD in P622
CELL 0.98000 93.13 93.13 129.92 90.00 90.00 120.00
LATT -1
SYMM X-Y,X,Z
SYMM -Y,X-Y,Z
SYMM -X,-Y,Z
SYMM -X+Y,-X,Z
SYMM Y,-X+Y,Z
SYMM -Y,-X,-Z
SYMM X-Y,-Y,-Z
SYMM X,X-Y,-Z
SYMM Y,X,-Z
SYMM -X+Y,Y,-Z
SYMM -X,-X+Y,-Z
SFAC SE
UNIT 384
SE01   1  0.000000  0.000000  0.000000   0.0833  0.2
SE02   1 -0.430473 -0.213791 -0.331375   0.1451  0.2
SE03   1  0.216553  0.222992  0.054171   0.1109  0.2
SE04   1 -0.337097 -0.239311 -0.498112   0.1095  0.2
SE05   1 -0.211876 -0.204819 -0.610556   0.1085  0.2
SE06   1 -0.664062 -0.332031 -0.223484   0.1001  0.2
SE07   1 -0.442505 -0.322670 -0.163854   0.1000  0.2
SE08   1  0.000000  0.000000 -0.500000   0.0062  0.2
SE09   1 -0.115135 -0.115959 -0.678516   0.0577  0.2
SE10   1  0.044304  0.033630  0.010257   0.0447  0.2
SE11   1  0.000000  0.000000 -0.715090   0.0054  0.2
HKLF 3
END 
