REM Best SHELXD solution:   CC 27.32   CC(weak) 16.05   CFOM  43.37
REM
TITL sad_fa.ins SAD in P622
CELL 0.98000 93.13 93.13 129.92 90.00 90.00 120.00
LATT -1
SYMM X-Y,X,Z
SYMM -Y,X-Y,Z
SYMM -X,-Y,Z
SYMM -X+Y,-X,Z
SYMM Y,-X+Y,Z
SYMM -Y,-X,-Z
SYMM X-Y,-Y,-Z
SYMM X,X-Y,-Z
SYMM Y,X,-Z
SYMM -X+Y,Y,-Z
SYMM -X,-X+Y,-Z
SFAC SE
UNIT 384
SE01   1  0.000000  0.000000  0.221860   0.1667  0.2
SE02   1 -0.332031  0.332031  0.000000   0.1836  0.2
SE03   1  0.428032  0.428032  0.500000   0.1642  0.2
SE04   1 -0.221252 -0.214615  0.167110   0.3254  0.2
SE05   1  0.457878  0.331154  0.389263   0.2418  0.2
SE06   1  0.540108  0.445740  0.326807   0.1896  0.2
SE07   1 -0.231575 -0.329048  0.281169   0.1879  0.2
SE08   1 -0.327049  0.114632  0.058837   0.1879  0.2
SE09   1  0.396645  0.276810  0.354896   0.1862  0.2
SE10   1 -0.339615  0.276672  0.034304   0.1756  0.2
SE11   1 -0.215134  0.224998  0.112222   0.1695  0.2
SE12   1  0.420685  0.206398  0.445503   0.1403  0.2
SE13   1  0.432060  0.434235  0.245996   0.1403  0.2
SE14   1  0.000000  0.000000  0.268448   0.0232  0.2
SE15   1  0.189072  0.000000  0.500000   0.0665  0.2
SE16   1  0.245934  0.000000  0.500000   0.0639  0.2
SE17   1  0.097397 -0.003212  0.484072   0.1254  0.2
SE18   1  0.048927  0.099075  0.357652   0.1073  0.2
SE19   1 -0.253845 -0.130493  0.142643   0.1064  0.2
SE20   1 -0.239861  0.090240  0.018607   0.1051  0.2
SE21   1 -0.402954 -0.003426  0.050030   0.0931  0.2
SE22   1 -0.189400  0.189041  0.012946   0.0922  0.2
SE23   1 -0.419212  0.173141  0.035444   0.0871  0.2
SE24   1 -0.329163  0.295036  0.008379   0.0832  0.2
SE25   1 -0.197815 -0.337608  0.357727   0.0787  0.2
SE26   1 -0.214638 -0.383278  0.354714   0.0749  0.2
SE27   1  0.634850  0.316742  0.341916   0.0747  0.2
SE28   1 -0.245270 -0.486496  0.323277   0.0736  0.2
SE29   1  0.503906  0.479408  0.576446   0.0613  0.2
SE30   1  0.364204  0.206779  0.498714   0.0464  0.2
SE31   1 -0.266640  0.151451  0.034217   0.0437  0.2
SE32   1 -0.357101 -0.573967  0.222841   0.0365  0.2
SE33   1 -0.332031  0.332031  0.120065   0.0221  0.2
SE34   1  0.664062  0.332031  0.285723   0.0078  0.2
HKLF 3
END 
