REM Best SHELXD solution:   CC 35.67   CC(weak) 21.33   CFOM  57.01
REM
TITL sad_fa.ins SAD in P622
CELL 0.98000 93.13 93.13 129.92 90.00 90.00 120.00
LATT -1
SYMM X-Y,X,Z+1/6
SYMM -Y,X-Y,Z+1/3
SYMM -X,-Y,Z+1/2
SYMM -X+Y,-X,Z+2/3
SYMM Y,-X+Y,Z+5/6
SYMM -Y,-X,-Z+5/6
SYMM X-Y,-Y,-Z
SYMM X,X-Y,-Z+1/6
SYMM Y,X,-Z+1/3
SYMM -X+Y,Y,-Z+1/2
SYMM -X,-X+Y,-Z+2/3
SFAC SE
UNIT 384
SE01   1  0.878342  0.547287  0.054892   1.0000  0.2
SE02   1  0.859222  0.613182 -0.035989   0.2379  0.2
SE03   1  0.558449  0.434555  0.121570   0.2249  0.2
SE04   1  0.789421  0.492851 -0.080128   0.2188  0.2
SE05   1  0.868156  0.625412 -0.064890   0.1888  0.2
SE06   1  0.907272  0.668823  0.226645   0.1349  0.2
SE07   1  0.931023  0.782997  0.107178   0.1316  0.2
SE08   1  0.824188  0.493774  0.250255   0.1124  0.2
SE09   1  0.747131  0.526222  0.079770   0.1124  0.2
SE10   1  0.815109  0.706940  0.087851   0.1102  0.2
SE11   1  0.734657  0.396912 -0.121499   0.1100  0.2
SE12   1  0.808533  0.464790  0.145229   0.1077  0.2
SE13   1  0.967659  0.907768  0.052514   0.1046  0.2
SE14   1  0.945839  0.586052  0.032233   0.1042  0.2
SE15   1  1.013962  0.831055  0.047074   0.1030  0.2
SE16   1  0.749481  0.469482  0.205980   0.1026  0.2
SE17   1  1.085464  0.834625  0.054222   0.0958  0.2
SE18   1  1.075424  0.861824  0.152564   0.0955  0.2
SE19   1  0.699806  0.658913  0.101356   0.0922  0.2
SE20   1  0.497353  0.420753  0.195568   0.0922  0.2
SE21   1  0.716438  0.378777  0.161109   0.0872  0.2
SE22   1  0.340538  0.313972  0.167669   0.0814  0.2
SE23   1  1.069527  0.786133  0.107707   0.0783  0.2
SE24   1  0.995499  0.787766 -0.019478   0.0758  0.2
SE25   1  0.567757  0.416763  0.081073   0.0741  0.2
SE26   1  0.454315  0.367859  0.056257   0.0704  0.2
SE27   1  0.730469  0.457115  0.250214   0.0689  0.2
SE28   1  0.634323  0.422997  0.000915   0.0588  0.2
HKLF 3
END 
