REM Best SHELXD solution:   CC 24.96   CC(weak) 16.36   CFOM  41.32
REM
TITL sad_fa.ins SAD in P622
CELL 0.98000 93.13 93.13 129.92 90.00 90.00 120.00
LATT -1
SYMM X-Y,X,Z
SYMM -Y,X-Y,Z
SYMM -X,-Y,Z
SYMM -X+Y,-X,Z
SYMM Y,-X+Y,Z
SYMM -Y,-X,-Z
SYMM X-Y,-Y,-Z
SYMM X,X-Y,-Z
SYMM Y,X,-Z
SYMM -X+Y,Y,-Z
SYMM -X,-X+Y,-Z
SFAC SE
UNIT 384
SE01   1  0.000000  0.000000  0.000000   0.0833  0.2
SE02   1  0.427872  0.209778  0.331554   0.1638  0.2
SE03   1  0.213943 -0.002419  0.389180   0.1072  0.2
SE04   1  0.238365 -0.100906  0.500363   0.1035  0.2
SE05   1  0.664062  0.332031  0.221797   0.0997  0.2
SE06   1  0.289986  0.144997  0.000000   0.0293  0.2
SE07   1  0.000000  0.000000  0.500000   0.0040  0.2
SE08   1  0.000000  0.000000  0.285675   0.0052  0.2
SE09   1  0.381477 -0.107574  0.500051   0.0303  0.2
SE10   1  0.043716  0.041069  0.006617   0.0201  0.2
SE11   1  0.000000  0.000000  0.405605   0.0028  0.2
HKLF 3
END 
