REM Best SHELXD solution:   CC 27.91   CC(weak) 12.79   CFOM  40.70
REM
TITL sad_fa.ins SAD in P622
CELL 0.98000 93.13 93.13 129.92 90.00 90.00 120.00
LATT -1
SYMM X-Y,X,Z
SYMM -Y,X-Y,Z
SYMM -X,-Y,Z
SYMM -X+Y,-X,Z
SYMM Y,-X+Y,Z
SYMM -Y,-X,-Z
SYMM X-Y,-Y,-Z
SYMM X,X-Y,-Z
SYMM Y,X,-Z
SYMM -X+Y,Y,-Z
SYMM -X,-X+Y,-Z
SFAC SE
UNIT 384
SE01   1  0.000000  0.000000  0.221106   0.1667  0.2
SE02   1  0.332031 -0.332031  0.000000   0.1347  0.2
SE03   1  0.430138  0.430138  0.500000   0.1327  0.2
SE04   1 -0.217560 -0.212318  0.165008   0.2626  0.2
SE05   1  0.428284  0.219521  0.448101   0.1703  0.2
SE06   1  0.244629  0.244629  0.500000   0.0773  0.2
SE07   1 -0.431252 -0.223366  0.109857   0.1449  0.2
SE08   1 -0.352402 -0.059143  0.010183   0.1433  0.2
SE09   1  0.061577  0.079445  0.310362   0.1413  0.2
SE10   1  0.446930  0.125954  0.386810   0.1393  0.2
SE11   1 -0.185287 -0.229523  0.158820   0.1333  0.2
SE12   1  0.348595  0.165642  0.433765   0.1258  0.2
SE13   1  0.651566  0.345573  0.436922   0.1249  0.2
SE14   1 -0.408211 -0.166878  0.194289   0.1222  0.2
SE15   1 -0.424561 -0.364647  0.112513   0.1207  0.2
SE16   1 -0.338036 -0.239105  0.282143   0.1141  0.2
SE17   1 -0.032288 -0.045181  0.216490   0.1058  0.2
SE18   1  0.379440 -0.215500  0.034235   0.1039  0.2
SE19   1  0.102592  0.102592  0.500000   0.0519  0.2
SE20   1 -0.237946 -0.232307  0.108238   0.0980  0.2
SE21   1  0.348236  0.083969  0.460752   0.0966  0.2
SE22   1 -0.058121 -0.170235  0.249684   0.0957  0.2
SE23   1 -0.372070 -0.400200  0.252748   0.0930  0.2
SE24   1  0.548058  0.100555  0.325628   0.0881  0.2
SE25   1  0.350250  0.120277  0.499715   0.0858  0.2
SE26   1  0.345253  0.121124  0.466264   0.0765  0.2
SE27   1 -0.139328 -0.222260  0.107420   0.0713  0.2
SE28   1  0.619926  0.106522  0.279527   0.0637  0.2
SE29   1  0.513229  0.256615  0.500000   0.0263  0.2
SE30   1  0.024330  0.022491  0.246831   0.0513  0.2
SE31   1 -0.142738 -0.282425  0.133977   0.0470  0.2
SE32   1  0.000000  0.000000  0.318725   0.0068  0.2
SE33   1  0.667969  0.332031  0.288817   0.0297  0.2
HKLF 3
END 
