REM Best SHELXD solution:   CC 36.21   CC(weak) 20.66   CFOM  56.87
REM
TITL sad_fa.ins SAD in P622
CELL 0.98000 93.13 93.13 129.92 90.00 90.00 120.00
LATT -1
SYMM X-Y,X,Z+1/6
SYMM -Y,X-Y,Z+1/3
SYMM -X,-Y,Z+1/2
SYMM -X+Y,-X,Z+2/3
SYMM Y,-X+Y,Z+5/6
SYMM -Y,-X,-Z+5/6
SYMM X-Y,-Y,-Z
SYMM X,X-Y,-Z+1/6
SYMM Y,X,-Z+1/3
SYMM -X+Y,Y,-Z+1/2
SYMM -X,-X+Y,-Z+2/3
SFAC SE
UNIT 384
SE01   1  0.120949  0.449799  0.054990   1.0000  0.2
SE02   1  0.442795  0.566429  0.120714   0.2264  0.2
SE03   1  0.212029  0.508224 -0.079956   0.2202  0.2
SE04   1  0.140800  0.386818 -0.035940   0.2147  0.2
SE05   1  0.130608  0.374321 -0.064763   0.2074  0.2
SE06   1  0.174561  0.669373 -0.082912   0.1208  0.2
SE07   1  0.183281  0.292336  0.090185   0.1184  0.2
SE08   1  0.266022  0.603355 -0.121609   0.1134  0.2
SE09   1  0.031105  0.091873  0.052796   0.1119  0.2
SE10   1  0.229118  0.449890 -0.142837   0.1078  0.2
SE11   1  0.188744  0.650459  0.021476   0.1066  0.2
SE12   1  0.289192  0.550476  0.006684   0.1023  0.2
SE13   1  0.284737  0.661987  0.002726   0.1021  0.2
SE14   1  0.213318  0.286087 -0.058416   0.0999  0.2
SE15   1  0.055656  0.412750  0.031965   0.0983  0.2
SE16   1  0.385925  0.581177 -0.040254   0.0906  0.2
SE17   1  0.146286  0.524086  0.069241   0.0899  0.2
SE18   1  0.247849  0.573257  0.002327   0.0896  0.2
SE19   1  0.000130  0.209503 -0.017466   0.0879  0.2
SE20   1  0.050148  0.604568 -0.061133   0.0867  0.2
SE21   1  0.150040  0.436493  0.059132   0.0864  0.2
SE22   1  0.069038  0.367439  0.007560   0.0853  0.2
SE23   1  0.188423  0.478172 -0.113242   0.0802  0.2
SE24   1  0.040710  0.036934  0.053325   0.0779  0.2
SE25   1 -0.016869  0.165245  0.048114   0.0770  0.2
SE26   1  0.336922  0.478569 -0.107575   0.0746  0.2
SE27   1  0.032410  0.417091 -0.084235   0.0739  0.2
SE28   1  0.269531  0.727348 -0.083885   0.0693  0.2
SE29   1  0.302483  0.337830  0.102213   0.0607  0.2
SE30   1  0.366936  0.580734  0.001911   0.0601  0.2
SE31   1  0.306213  0.481850 -0.043312   0.0597  0.2
SE32   1  0.273026  0.360115 -0.156357   0.0591  0.2
SE33   1  0.281021  0.512520  0.036304   0.0556  0.2
SE34   1  0.213188  0.372681  0.075796   0.0530  0.2
SE35   1  0.265640  0.335266  0.008348   0.0525  0.2
SE36   1  0.029198  0.370621 -0.080132   0.0499  0.2
SE37   1  0.236717  0.710655  0.073758   0.0426  0.2
SE38   1  0.050575  0.148392 -0.048271   0.0423  0.2
SE39   1  0.053459  0.214668  0.113055   0.0378  0.2
HKLF 3
END 
